
16
 Entering Gaussian System, Link 0=g16
 Initial command:
 /cluster/software/Gaussian/g16_B.01/l1.exe "/cluster/work/users/vle014/5834675/Gau-3383209.inp" -scrdir="/cluster/work/users/vle014/5834675/"
 Entering Link 1 = /cluster/software/Gaussian/g16_B.01/l1.exe PID=   3383210.
  
 Copyright (c) 1988-2017, Gaussian, Inc.  All Rights Reserved.
  
 This is part of the Gaussian(R) 16 program.  It is based on
 the Gaussian(R) 09 system (copyright 2009, Gaussian, Inc.),
 the Gaussian(R) 03 system (copyright 2003, Gaussian, Inc.),
 the Gaussian(R) 98 system (copyright 1998, Gaussian, Inc.),
 the Gaussian(R) 94 system (copyright 1995, Gaussian, Inc.),
 the Gaussian 92(TM) system (copyright 1992, Gaussian, Inc.),
 the Gaussian 90(TM) system (copyright 1990, Gaussian, Inc.),
 the Gaussian 88(TM) system (copyright 1988, Gaussian, Inc.),
 the Gaussian 86(TM) system (copyright 1986, Carnegie Mellon
 University), and the Gaussian 82(TM) system (copyright 1983,
 Carnegie Mellon University). Gaussian is a federally registered
 trademark of Gaussian, Inc.
  
 This software contains proprietary and confidential information,
 including trade secrets, belonging to Gaussian, Inc.
  
 This software is provided under written license and may be
 used, copied, transmitted, or stored only in accord with that
 written license.
  
 The following legend is applicable only to US Government
 contracts under FAR:
  
                    RESTRICTED RIGHTS LEGEND
  
 Use, reproduction and disclosure by the US Government is
 subject to restrictions as set forth in subparagraphs (a)
 and (c) of the Commercial Computer Software - Restricted
 Rights clause in FAR 52.227-19.
  
 Gaussian, Inc.
 340 Quinnipiac St., Bldg. 40, Wallingford CT 06492
  
  
 ---------------------------------------------------------------
 Warning -- This program may not be used in any manner that
 competes with the business of Gaussian, Inc. or will provide
 assistance to any competitor of Gaussian, Inc.  The licensee
 of this program is prohibited from giving any competitor of
 Gaussian, Inc. access to this program.  By using this program,
 the user acknowledges that Gaussian, Inc. is engaged in the
 business of creating and licensing software in the field of
 computational chemistry and represents and warrants to the
 licensee that it is not a competitor of Gaussian, Inc. and that
 it will not use this program in any manner prohibited above.
 ---------------------------------------------------------------
  

 Cite this work as:
 Gaussian 16, Revision B.01,
 M. J. Frisch, G. W. Trucks, H. B. Schlegel, G. E. Scuseria, 
 M. A. Robb, J. R. Cheeseman, G. Scalmani, V. Barone, 
 G. A. Petersson, H. Nakatsuji, X. Li, M. Caricato, A. V. Marenich, 
 J. Bloino, B. G. Janesko, R. Gomperts, B. Mennucci, H. P. Hratchian, 
 J. V. Ortiz, A. F. Izmaylov, J. L. Sonnenberg, D. Williams-Young, 
 F. Ding, F. Lipparini, F. Egidi, J. Goings, B. Peng, A. Petrone, 
 T. Henderson, D. Ranasinghe, V. G. Zakrzewski, J. Gao, N. Rega, 
 G. Zheng, W. Liang, M. Hada, M. Ehara, K. Toyota, R. Fukuda, 
 J. Hasegawa, M. Ishida, T. Nakajima, Y. Honda, O. Kitao, H. Nakai, 
 T. Vreven, K. Throssell, J. A. Montgomery, Jr., J. E. Peralta, 
 F. Ogliaro, M. J. Bearpark, J. J. Heyd, E. N. Brothers, K. N. Kudin, 
 V. N. Staroverov, T. A. Keith, R. Kobayashi, J. Normand, 
 K. Raghavachari, A. P. Rendell, J. C. Burant, S. S. Iyengar, 
 J. Tomasi, M. Cossi, J. M. Millam, M. Klene, C. Adamo, R. Cammi, 
 J. W. Ochterski, R. L. Martin, K. Morokuma, O. Farkas, 
 J. B. Foresman, and D. J. Fox, Gaussian, Inc., Wallingford CT, 2016.
 
 ******************************************
 Gaussian 16:  ES64L-G16RevB.01 20-Dec-2017
                 9-Jul-2024 
 ******************************************
 %LindaWorkers=cib64-2:2
 %NProcShared=16
 Will use up to   16 processors via shared memory.
 %chk=inputFull_3q
 %mem=745MB
 SetLPE:    new flags="-opt 'Tsnet.Node.lindarsharg: ssh' -mp 2 -nodelist 'cib64-2' -opt 'Tsnet.cib64-2.speedfactor: 2' -env GAUSS_MDEF=97648640 -env GAUSS_EXEDIR="/cluster/software/Gaussian/g16_B.01""
 Will use up to    2 processors via Linda.
 -------------------------------------------------------
 #P HF/cc-pVQZ Opt=VeryTight Int=UltraFine SCF=VeryTight
 -------------------------------------------------------
 1/7=1,18=20,19=15,38=1/1,3;
 2/9=110,12=2,17=6,18=5,40=1/2;
 3/5=16,6=2,11=9,25=1,30=1,71=1,75=-5/1,2,3;
 4//1;
 5/5=2,17=3,38=5/2;
 6/7=2,8=2,9=2,10=2,28=1/1;
 7//1,2,3,16;
 1/7=1,18=20,19=15/3(2);
 2/9=110/2;
 99//99;
 2/9=110/2;
 3/5=16,6=2,11=9,25=1,30=1,71=1,75=-5/1,2,3;
 4/5=5,16=3,69=1/1;
 5/5=2,17=3,38=5/2;
 7//1,2,3,16;
 1/7=1,18=20,19=15/3(-5);
 2/9=110/2;
 6/7=2,8=2,9=2,10=2,19=2,28=1/1;
 99/9=1/99;
 Leave Link    1 at Tue Jul  9 10:56:02 2024, MaxMem=    97648640 cpu:               0.6 elap:               0.0
 (Enter /cluster/software/Gaussian/g16_B.01/l101.exe)
 -----
 Title
 -----
 Symbolic Z-matrix:
 Charge =  0 Multiplicity = 1
 O                     0.        0.        0.00667 
 C                     0.        0.        1.18458 
 H                     0.92653   0.        1.76432 
 H                    -0.92653   0.        1.76432 
 
 ITRead=  0  0  0  0
 MicOpt= -1 -1 -1 -1
 NAtoms=      4 NQM=        4 NQMF=       0 NMMI=      0 NMMIF=      0
                NMic=       0 NMicF=      0.
                    Isotopes and Nuclear Properties:
 (Nuclear quadrupole moments (NQMom) in fm**2, nuclear magnetic moments (NMagM)
  in nuclear magnetons)

  Atom         1           2           3           4
 IAtWgt=          16          12           1           1
 AtmWgt=  15.9949146  12.0000000   1.0078250   1.0078250
 NucSpn=           0           0           1           1
 AtZEff=  -0.0000000  -0.0000000  -0.0000000  -0.0000000
 NQMom=    0.0000000   0.0000000   0.0000000   0.0000000
 NMagM=    0.0000000   0.0000000   2.7928460   2.7928460
 AtZNuc=   8.0000000   6.0000000   1.0000000   1.0000000
 Leave Link  101 at Tue Jul  9 10:56:03 2024, MaxMem=    97648640 cpu:               4.5 elap:               0.4
 (Enter /cluster/software/Gaussian/g16_B.01/l103.exe)

 GradGradGradGradGradGradGradGradGradGradGradGradGradGradGradGradGradGrad
 Berny optimization.
 Initialization pass.
                           ----------------------------
                           !    Initial Parameters    !
                           ! (Angstroms and Degrees)  !
 --------------------------                            --------------------------
 ! Name  Definition              Value          Derivative Info.                !
 --------------------------------------------------------------------------------
 ! R1    R(1,2)                  1.1779         estimate D2E/DX2                !
 ! R2    R(2,3)                  1.093          estimate D2E/DX2                !
 ! R3    R(2,4)                  1.093          estimate D2E/DX2                !
 ! A1    A(1,2,3)              122.0347         estimate D2E/DX2                !
 ! A2    A(1,2,4)              122.0347         estimate D2E/DX2                !
 ! A3    A(3,2,4)              115.9306         estimate D2E/DX2                !
 ! D1    D(1,2,4,3)            180.0            estimate D2E/DX2                !
 --------------------------------------------------------------------------------
 Trust Radius=3.00D-01 FncErr=1.00D-07 GrdErr=1.00D-07 EigMax=2.50D+02 EigMin=1.00D-04
 Number of steps in this run=     20 maximum allowed number of steps=    100.
 GradGradGradGradGradGradGradGradGradGradGradGradGradGradGradGradGradGrad

 Leave Link  103 at Tue Jul  9 10:56:04 2024, MaxMem=    97648640 cpu:               0.9 elap:               0.1
 (Enter /cluster/software/Gaussian/g16_B.01/l202.exe)
                          Input orientation:                          
 ---------------------------------------------------------------------
 Center     Atomic      Atomic             Coordinates (Angstroms)
 Number     Number       Type             X           Y           Z
 ---------------------------------------------------------------------
      1          8           0        0.000000    0.000000    0.006669
      2          6           0        0.000000    0.000000    1.184582
      3          1           0        0.926529    0.000000    1.764322
      4          1           0       -0.926529    0.000000    1.764322
 ---------------------------------------------------------------------
                    Distance matrix (angstroms):
                    1          2          3          4
     1  O    0.000000
     2  C    1.177913   0.000000
     3  H    1.986907   1.092957   0.000000
     4  H    1.986907   1.092957   1.853058   0.000000
 Stoichiometry    CH2O
 Framework group  C2V[C2(CO),SGV(H2)]
 Deg. of freedom     3
 Full point group                 C2V     NOp   4
 Largest Abelian subgroup         C2V     NOp   4
 Largest concise Abelian subgroup C2      NOp   2
                         Standard orientation:                         
 ---------------------------------------------------------------------
 Center     Atomic      Atomic             Coordinates (Angstroms)
 Number     Number       Type             X           Y           Z
 ---------------------------------------------------------------------
      1          8           0        0.000000    0.000000    0.661424
      2          6           0        0.000000   -0.000000   -0.516489
      3          1           0       -0.000000    0.926529   -1.096229
      4          1           0       -0.000000   -0.926529   -1.096229
 ---------------------------------------------------------------------
 Rotational constants (GHZ):         292.0680335          40.5481774          35.6050789
 Leave Link  202 at Tue Jul  9 10:56:04 2024, MaxMem=    97648640 cpu:               0.6 elap:               0.1
 (Enter /cluster/software/Gaussian/g16_B.01/l301.exe)
 Standard basis: CC-pVQZ (5D, 7F)
 Ernie: Thresh=  0.10000D-02 Tol=  0.10000D-05 Strict=F.
 Ernie:  6 primitive shells out of 90 were deleted.
 There are    84 symmetry adapted cartesian basis functions of A1  symmetry.
 There are    27 symmetry adapted cartesian basis functions of A2  symmetry.
 There are    43 symmetry adapted cartesian basis functions of B1  symmetry.
 There are    56 symmetry adapted cartesian basis functions of B2  symmetry.
 There are    64 symmetry adapted basis functions of A1  symmetry.
 There are    24 symmetry adapted basis functions of A2  symmetry.
 There are    36 symmetry adapted basis functions of B1  symmetry.
 There are    46 symmetry adapted basis functions of B2  symmetry.
   170 basis functions,   252 primitive gaussians,   210 cartesian basis functions
     8 alpha electrons        8 beta electrons
       nuclear repulsion energy        31.9209191640 Hartrees.
 IExCor=    0 DFT=F Ex=HF Corr=None ExCW=0 ScaHFX=  1.000000
 ScaDFX=  1.000000  1.000000  1.000000  1.000000 ScalE2=  1.000000  1.000000
 IRadAn=      5 IRanWt=     -1 IRanGd=            0 ICorTp=0 IEmpDi=  4
 NAtoms=    4 NActive=    4 NUniq=    3 SFac= 1.78D+00 NAtFMM=   60 NAOKFM=F Big=F
 Integral buffers will be    131072 words long.
 Raffenetti 1 integral format.
 Two-electron integral symmetry is turned on.
 Leave Link  301 at Tue Jul  9 10:56:05 2024, MaxMem=    97648640 cpu:               2.9 elap:               0.3
 (Enter /cluster/software/Gaussian/g16_B.01/l302.exe)
 NPDir=0 NMtPBC=     1 NCelOv=     1 NCel=       1 NClECP=     1 NCelD=      1
         NCelK=      1 NCelE2=     1 NClLst=     1 CellRange=     0.0.
 One-electron integrals computed using PRISM.
 One-electron integral symmetry used in STVInt
 PrsmSu:  requested number of processors reduced to:   4 ShMem   1 Linda.
 NBasis=   170 RedAO= T EigKep=  2.33D-04  NBF=    64    24    36    46
 NBsUse=   170 1.00D-06 EigRej= -1.00D+00 NBFU=    64    24    36    46
 Leave Link  302 at Tue Jul  9 10:56:06 2024, MaxMem=    97648640 cpu:               3.1 elap:               0.3
 (Enter /cluster/software/Gaussian/g16_B.01/l303.exe)
 DipDrv:  MaxL=1.
 Leave Link  303 at Tue Jul  9 10:56:06 2024, MaxMem=    97648640 cpu:               1.7 elap:               0.3
 (Enter /cluster/software/Gaussian/g16_B.01/l401.exe)
 ExpMin= 8.99D-02 ExpMax= 6.14D+04 ExpMxC= 5.91D+02 IAcc=3 IRadAn=         5 AccDes= 0.00D+00
 Harris functional with IExCor=  205 and IRadAn=       5 diagonalized for initial guess.
 HarFok:  IExCor=  205 AccDes= 0.00D+00 IRadAn=         5 IDoV= 1 UseB2=F ITyADJ=14
 ICtDFT=  3500011 ScaDFX=  1.000000  1.000000  1.000000  1.000000
 FoFCou: FMM=F IPFlag=           0 FMFlag=      100000 FMFlg1=           0
         NFxFlg=           0 DoJE=T BraDBF=F KetDBF=T FulRan=T
         wScrn=  0.000000 ICntrl=       500 IOpCl=  0 I1Cent=   200000004 NGrid=           0
         NMat0=    1 NMatS0=      1 NMatT0=    0 NMatD0=    1 NMtDS0=    0 NMtDT0=    0
 Petite list used in FoFCou.
 Harris En= -114.006809129666    
 JPrj=0 DoOrth=F DoCkMO=F.
 Initial guess orbital symmetries:
       Occupied  (A1) (A1) (A1) (A1) (B2) (A1) (B1) (B2)
       Virtual   (B1) (A1) (B2) (A1) (B1) (A1) (B2) (A1) (A1) (B2)
                 (A2) (A1) (B1) (B2) (B1) (A1) (B2) (A2) (A1) (B1)
                 (A1) (B2) (B2) (A1) (A1) (A1) (B1) (A1) (A2) (B2)
                 (B1) (A1) (B2) (B2) (A2) (A1) (A1) (B1) (B1) (B2)
                 (A1) (A2) (B2) (B1) (A1) (A2) (B2) (A1) (B1) (B2)
                 (A1) (A1) (A2) (B2) (B1) (B1) (A1) (B2) (B1) (A1)
                 (B2) (A1) (A2) (B2) (B2) (B1) (A1) (A1) (A1) (B2)
                 (A2) (B1) (A1) (A2) (B1) (A1) (A1) (B2) (A1) (B2)
                 (A1) (B2) (B1) (A2) (A2) (B1) (A1) (B1) (A2) (B2)
                 (B2) (A1) (B2) (B1) (B2) (A2) (B1) (A1) (A1) (B1)
                 (A1) (B2) (A1) (A2) (B2) (B1) (A1) (A1) (B1) (B2)
                 (A2) (A1) (A2) (B1) (A1) (B2) (A1) (B2) (A1) (B1)
                 (B2) (A2) (A2) (A1) (B1) (B2) (A1) (A2) (B2) (A1)
                 (B1) (B2) (A1) (B1) (A2) (A1) (B2) (B1) (A1) (B2)
                 (A2) (B1) (B2) (B2) (A1) (B1) (A1) (B2) (A1) (A2)
                 (A1) (B1) (A2) (B2) (A1) (B2) (A1) (B1) (B2) (A1)
                 (A1) (A1)
 The electronic state of the initial guess is 1-A1.
 Leave Link  401 at Tue Jul  9 10:56:08 2024, MaxMem=    97648640 cpu:               7.9 elap:               0.6
 (Enter /cluster/software/Gaussian/g16_B.01/l502.exe)
 Integral symmetry usage will be decided dynamically.
 Closed shell SCF:
 Using DIIS extrapolation, IDIIS=  1040.
 NGot=    97648640 LenX=    97554016 LenY=    97509475
 Requested convergence on RMS density matrix=1.00D-08 within 128 cycles.
 Requested convergence on MAX density matrix=1.00D-06.
 Requested convergence on             energy=1.00D-06.
 No special actions if energy rises.
 Fock matrices will be formed incrementally for  20 cycles.
 Integral accuracy reduced to 1.0D-05 until final iterations.

 Cycle   1  Pass 0  IDiag  1:
 FoFJK:  IHMeth= 1 ICntrl=       0 DoSepK=F KAlg= 0 I1Cent=           0 FoldK=F
 IRaf= 990000000 NMat=       1 IRICut=       1 DoRegI=T DoRafI=F ISym2E= 1 IDoP0=0 IntGTp=1.
 FoFCou: FMM=F IPFlag=           0 FMFlag=      100000 FMFlg1=           0
         NFxFlg=           0 DoJE=F BraDBF=F KetDBF=F FulRan=T
         wScrn=  0.000000 ICntrl=         0 IOpCl=  0 I1Cent=           0 NGrid=           0
         NMat0=    1 NMatS0=      1 NMatT0=    0 NMatD0=    1 NMtDS0=    0 NMtDT0=    0
 Petite list used in FoFCou.
 E= -113.842141457396    
 DIIS: error= 3.44D-02 at cycle   1 NSaved=   1.
 NSaved= 1 IEnMin= 1 EnMin= -113.842141457396     IErMin= 1 ErrMin= 3.44D-02
 ErrMax= 3.44D-02  0.00D+00 EMaxC= 1.00D-01 BMatC= 2.33D-01 BMatP= 2.33D-01
 IDIUse=3 WtCom= 6.56D-01 WtEn= 3.44D-01
 Coeff-Com:  0.100D+01
 Coeff-En:   0.100D+01
 Coeff:      0.100D+01
 Gap=     0.493 Goal=   None    Shift=    0.000
 GapD=    0.493 DampG=2.000 DampE=0.500 DampFc=1.0000 IDamp=-1.
 RMSDP=1.46D-03 MaxDP=4.77D-02              OVMax= 1.11D-01

 Cycle   2  Pass 0  IDiag  1:
 RMSU=  1.46D-03    CP:  1.00D+00
 E= -113.903273683351     Delta-E=       -0.061132225955 Rises=F Damp=F
 DIIS: error= 1.73D-02 at cycle   2 NSaved=   2.
 NSaved= 2 IEnMin= 2 EnMin= -113.903273683351     IErMin= 2 ErrMin= 1.73D-02
 ErrMax= 1.73D-02  0.00D+00 EMaxC= 1.00D-01 BMatC= 3.04D-02 BMatP= 2.33D-01
 IDIUse=3 WtCom= 8.27D-01 WtEn= 1.73D-01
 Coeff-Com:  0.184D+00 0.816D+00
 Coeff-En:   0.000D+00 0.100D+01
 Coeff:      0.152D+00 0.848D+00
 Gap=     0.589 Goal=   None    Shift=    0.000
 RMSDP=8.93D-04 MaxDP=2.00D-02 DE=-6.11D-02 OVMax= 6.19D-02

 Cycle   3  Pass 0  IDiag  1:
 RMSU=  4.14D-04    CP:  1.00D+00  4.59D-01
 E= -113.917852603118     Delta-E=       -0.014578919766 Rises=F Damp=F
 DIIS: error= 8.87D-03 at cycle   3 NSaved=   3.
 NSaved= 3 IEnMin= 3 EnMin= -113.917852603118     IErMin= 3 ErrMin= 8.87D-03
 ErrMax= 8.87D-03  0.00D+00 EMaxC= 1.00D-01 BMatC= 7.21D-03 BMatP= 3.04D-02
 IDIUse=3 WtCom= 9.11D-01 WtEn= 8.87D-02
 Coeff-Com: -0.223D-01 0.309D+00 0.713D+00
 Coeff-En:   0.000D+00 0.648D-01 0.935D+00
 Coeff:     -0.204D-01 0.288D+00 0.733D+00
 Gap=     0.554 Goal=   None    Shift=    0.000
 RMSDP=1.99D-04 MaxDP=5.61D-03 DE=-1.46D-02 OVMax= 2.72D-02

 Cycle   4  Pass 0  IDiag  1:
 RMSU=  1.11D-04    CP:  9.99D-01  5.63D-01  8.54D-01
 E= -113.922255168061     Delta-E=       -0.004402564943 Rises=F Damp=F
 DIIS: error= 1.83D-03 at cycle   4 NSaved=   4.
 NSaved= 4 IEnMin= 4 EnMin= -113.922255168061     IErMin= 4 ErrMin= 1.83D-03
 ErrMax= 1.83D-03  0.00D+00 EMaxC= 1.00D-01 BMatC= 1.40D-04 BMatP= 7.21D-03
 IDIUse=3 WtCom= 9.82D-01 WtEn= 1.83D-02
 Coeff-Com: -0.844D-02 0.424D-01 0.185D+00 0.781D+00
 Coeff-En:   0.000D+00 0.000D+00 0.000D+00 0.100D+01
 Coeff:     -0.828D-02 0.416D-01 0.182D+00 0.785D+00
 Gap=     0.555 Goal=   None    Shift=    0.000
 RMSDP=4.34D-05 MaxDP=1.12D-03 DE=-4.40D-03 OVMax= 3.36D-03

 Cycle   5  Pass 0  IDiag  1:
 RMSU=  2.28D-05    CP:  9.98D-01  5.48D-01  9.22D-01  9.32D-01
 E= -113.922367344505     Delta-E=       -0.000112176444 Rises=F Damp=F
 DIIS: error= 4.26D-04 at cycle   5 NSaved=   5.
 NSaved= 5 IEnMin= 5 EnMin= -113.922367344505     IErMin= 5 ErrMin= 4.26D-04
 ErrMax= 4.26D-04  0.00D+00 EMaxC= 1.00D-01 BMatC= 4.25D-06 BMatP= 1.40D-04
 IDIUse=3 WtCom= 9.96D-01 WtEn= 4.26D-03
 Coeff-Com:  0.227D-02-0.241D-01-0.708D-01-0.114D+00 0.121D+01
 Coeff-En:   0.000D+00 0.000D+00 0.000D+00 0.000D+00 0.100D+01
 Coeff:      0.226D-02-0.240D-01-0.705D-01-0.113D+00 0.121D+01
 Gap=     0.556 Goal=   None    Shift=    0.000
 RMSDP=2.52D-05 MaxDP=6.40D-04 DE=-1.12D-04 OVMax= 1.62D-03

 Cycle   6  Pass 0  IDiag  1:
 RMSU=  4.24D-06    CP:  9.98D-01  5.37D-01  9.51D-01  1.03D+00  1.41D+00
 E= -113.922376548464     Delta-E=       -0.000009203959 Rises=F Damp=F
 DIIS: error= 8.21D-05 at cycle   6 NSaved=   6.
 NSaved= 6 IEnMin= 6 EnMin= -113.922376548464     IErMin= 6 ErrMin= 8.21D-05
 ErrMax= 8.21D-05  0.00D+00 EMaxC= 1.00D-01 BMatC= 4.36D-07 BMatP= 4.25D-06
 IDIUse=1 WtCom= 1.00D+00 WtEn= 0.00D+00
 Coeff-Com: -0.148D-03 0.291D-02 0.104D-01-0.214D-01-0.284D+00 0.129D+01
 Coeff:     -0.148D-03 0.291D-02 0.104D-01-0.214D-01-0.284D+00 0.129D+01
 Gap=     0.556 Goal=   None    Shift=    0.000
 RMSDP=7.94D-06 MaxDP=2.05D-04 DE=-9.20D-06 OVMax= 6.30D-04

 Initial convergence to 1.0D-05 achieved.  Increase integral accuracy.
 Cycle   7  Pass 1  IDiag  1:
 E= -113.922377405208     Delta-E=       -0.000000856744 Rises=F Damp=F
 DIIS: error= 3.70D-05 at cycle   1 NSaved=   1.
 NSaved= 1 IEnMin= 1 EnMin= -113.922377405208     IErMin= 1 ErrMin= 3.70D-05
 ErrMax= 3.70D-05  0.00D+00 EMaxC= 1.00D-01 BMatC= 6.11D-08 BMatP= 6.11D-08
 IDIUse=1 WtCom= 1.00D+00 WtEn= 0.00D+00
 Coeff-Com:  0.100D+01
 Coeff:      0.100D+01
 Gap=     0.556 Goal=   None    Shift=    0.000
 RMSDP=7.94D-06 MaxDP=2.05D-04 DE=-8.57D-07 OVMax= 1.46D-04

 Cycle   8  Pass 1  IDiag  1:
 RMSU=  1.66D-06    CP:  1.00D+00
 E= -113.922377534042     Delta-E=       -0.000000128834 Rises=F Damp=F
 DIIS: error= 2.88D-05 at cycle   2 NSaved=   2.
 NSaved= 2 IEnMin= 2 EnMin= -113.922377534042     IErMin= 2 ErrMin= 2.88D-05
 ErrMax= 2.88D-05  0.00D+00 EMaxC= 1.00D-01 BMatC= 1.41D-08 BMatP= 6.11D-08
 IDIUse=1 WtCom= 1.00D+00 WtEn= 0.00D+00
 Coeff-Com: -0.153D+00 0.115D+01
 Coeff:     -0.153D+00 0.115D+01
 Gap=     0.556 Goal=   None    Shift=    0.000
 RMSDP=8.36D-07 MaxDP=3.00D-05 DE=-1.29D-07 OVMax= 1.55D-04

 Cycle   9  Pass 1  IDiag  1:
 RMSU=  4.85D-07    CP:  1.00D+00  1.40D+00
 E= -113.922377578731     Delta-E=       -0.000000044689 Rises=F Damp=F
 DIIS: error= 1.19D-05 at cycle   3 NSaved=   3.
 NSaved= 3 IEnMin= 3 EnMin= -113.922377578731     IErMin= 3 ErrMin= 1.19D-05
 ErrMax= 1.19D-05  0.00D+00 EMaxC= 1.00D-01 BMatC= 1.00D-08 BMatP= 1.41D-08
 IDIUse=1 WtCom= 1.00D+00 WtEn= 0.00D+00
 Coeff-Com: -0.528D+00 0.464D+00 0.106D+01
 Coeff:     -0.528D+00 0.464D+00 0.106D+01
 Gap=     0.556 Goal=   None    Shift=    0.000
 RMSDP=9.83D-07 MaxDP=2.61D-05 DE=-4.47D-08 OVMax= 9.39D-05

 Cycle  10  Pass 1  IDiag  1:
 RMSU=  3.63D-07    CP:  1.00D+00  1.91D+00  1.66D+00
 E= -113.922377596840     Delta-E=       -0.000000018109 Rises=F Damp=F
 DIIS: error= 1.21D-06 at cycle   4 NSaved=   4.
 NSaved= 4 IEnMin= 4 EnMin= -113.922377596840     IErMin= 4 ErrMin= 1.21D-06
 ErrMax= 1.21D-06  0.00D+00 EMaxC= 1.00D-01 BMatC= 7.63D-11 BMatP= 1.00D-08
 IDIUse=1 WtCom= 1.00D+00 WtEn= 0.00D+00
 Coeff-Com:  0.170D-02-0.430D-01-0.134D-01 0.105D+01
 Coeff:      0.170D-02-0.430D-01-0.134D-01 0.105D+01
 Gap=     0.556 Goal=   None    Shift=    0.000
 RMSDP=9.74D-08 MaxDP=2.58D-06 DE=-1.81D-08 OVMax= 1.10D-05

 Cycle  11  Pass 1  IDiag  1:
 RMSU=  3.03D-08    CP:  1.00D+00  1.94D+00  1.77D+00  1.14D+00
 E= -113.922377597027     Delta-E=       -0.000000000187 Rises=F Damp=F
 DIIS: error= 3.30D-07 at cycle   5 NSaved=   5.
 NSaved= 5 IEnMin= 5 EnMin= -113.922377597027     IErMin= 5 ErrMin= 3.30D-07
 ErrMax= 3.30D-07  0.00D+00 EMaxC= 1.00D-01 BMatC= 6.30D-12 BMatP= 7.63D-11
 IDIUse=1 WtCom= 1.00D+00 WtEn= 0.00D+00
 Coeff-Com:  0.388D-01-0.358D-01-0.727D-01 0.731D-01 0.997D+00
 Coeff:      0.388D-01-0.358D-01-0.727D-01 0.731D-01 0.997D+00
 Gap=     0.556 Goal=   None    Shift=    0.000
 RMSDP=1.94D-08 MaxDP=8.82D-07 DE=-1.87D-10 OVMax= 9.81D-07

 Cycle  12  Pass 1  IDiag  1:
 RMSU=  1.13D-08    CP:  1.00D+00  1.94D+00  1.79D+00  1.17D+00  1.23D+00
 E= -113.922377597035     Delta-E=       -0.000000000008 Rises=F Damp=F
 DIIS: error= 4.32D-08 at cycle   6 NSaved=   6.
 NSaved= 6 IEnMin= 6 EnMin= -113.922377597035     IErMin= 6 ErrMin= 4.32D-08
 ErrMax= 4.32D-08  0.00D+00 EMaxC= 1.00D-01 BMatC= 1.28D-13 BMatP= 6.30D-12
 IDIUse=1 WtCom= 1.00D+00 WtEn= 0.00D+00
 Coeff-Com: -0.132D-02 0.281D-02 0.264D-02-0.433D-01-0.568D-01 0.110D+01
 Coeff:     -0.132D-02 0.281D-02 0.264D-02-0.433D-01-0.568D-01 0.110D+01
 Gap=     0.556 Goal=   None    Shift=    0.000
 RMSDP=4.61D-09 MaxDP=1.61D-07 DE=-7.62D-12 OVMax= 2.16D-07

 SCF Done:  E(RHF) =  -113.922377597     A.U. after   12 cycles
            NFock= 12  Conv=0.46D-08     -V/T= 2.0001
 KE= 1.139125656358D+02 PE=-3.325062162832D+02 EE= 7.275035388635D+01
 Leave Link  502 at Tue Jul  9 10:56:16 2024, MaxMem=    97648640 cpu:             118.6 elap:               7.5
 (Enter /cluster/software/Gaussian/g16_B.01/l601.exe)
 Copying SCF densities to generalized density rwf, IOpCl= 0 IROHF=0.

 **********************************************************************

            Population analysis using the SCF Density.

 **********************************************************************

 Orbital symmetries:
       Occupied  (A1) (A1) (A1) (A1) (B2) (A1) (B1) (B2)
       Virtual   (B1) (A1) (B2) (A1) (B1) (A1) (B2) (A1) (A1) (A2)
                 (B2) (A1) (B1) (B2) (B1) (A1) (B2) (A2) (B1) (A1)
                 (B2) (A1) (B2) (A1) (A1) (A1) (A1) (B1) (A2) (B2)
                 (B1) (A1) (B2) (B2) (A2) (A1) (A1) (B1) (B1) (B2)
                 (A2) (A1) (B2) (A1) (A2) (B1) (B2) (B1) (A1) (A1)
                 (B2) (A1) (A2) (B2) (B1) (B1) (A1) (B2) (B1) (A1)
                 (B2) (A2) (A1) (B2) (B2) (A1) (B1) (A1) (A1) (B2)
                 (A2) (B1) (A2) (A1) (B1) (A1) (A1) (B2) (A1) (B2)
                 (A1) (B2) (B1) (A2) (A2) (B1) (A1) (B1) (A2) (B2)
                 (B2) (A1) (B2) (B1) (A2) (B2) (B1) (A1) (A1) (B2)
                 (A1) (B1) (A1) (A2) (B2) (B1) (A1) (A1) (B1) (B2)
                 (A2) (A2) (A1) (B1) (B2) (A1) (B2) (A1) (A1) (B1)
                 (B2) (A2) (A2) (B1) (A1) (B2) (A1) (A2) (B2) (A1)
                 (B1) (B2) (A1) (A2) (B1) (A1) (B2) (A1) (B1) (B2)
                 (A2) (B1) (B2) (B2) (A1) (B1) (A1) (B2) (A1) (A2)
                 (A1) (B1) (B2) (A2) (A1) (B2) (A1) (B1) (B2) (A1)
                 (A1) (A1)
 The electronic state is 1-A1.
 Alpha  occ. eigenvalues --  -20.57243 -11.33217  -1.42324  -0.86863  -0.70219
 Alpha  occ. eigenvalues --   -0.65965  -0.54835  -0.43981
 Alpha virt. eigenvalues --    0.11635   0.12243   0.17614   0.21806   0.33655
 Alpha virt. eigenvalues --    0.34466   0.34503   0.46796   0.47933   0.54088
 Alpha virt. eigenvalues --    0.54310   0.62888   0.65288   0.67613   0.74447
 Alpha virt. eigenvalues --    0.74994   0.81737   0.86990   0.90443   0.95783
 Alpha virt. eigenvalues --    1.02576   1.07800   1.12069   1.14139   1.21847
 Alpha virt. eigenvalues --    1.33995   1.46440   1.47155   1.50823   1.54539
 Alpha virt. eigenvalues --    1.63078   1.63148   1.73525   1.78708   1.87726
 Alpha virt. eigenvalues --    1.92415   2.02281   2.04102   2.04831   2.07399
 Alpha virt. eigenvalues --    2.10731   2.13857   2.28905   2.36537   2.37872
 Alpha virt. eigenvalues --    2.37951   2.48007   2.58168   2.61690   2.66552
 Alpha virt. eigenvalues --    2.66560   2.78869   2.81228   2.87600   2.90618
 Alpha virt. eigenvalues --    3.09718   3.10082   3.20049   3.21984   3.42852
 Alpha virt. eigenvalues --    3.48691   3.57976   3.62410   3.67628   3.70536
 Alpha virt. eigenvalues --    3.72446   3.74882   3.89509   4.05005   4.05760
 Alpha virt. eigenvalues --    4.13071   4.33454   4.38141   4.39953   4.57980
 Alpha virt. eigenvalues --    4.61561   4.70740   4.73199   5.05295   5.07197
 Alpha virt. eigenvalues --    5.38015   5.42020   5.51027   5.53819   5.67862
 Alpha virt. eigenvalues --    5.72621   5.84081   6.01704   6.03609   6.10997
 Alpha virt. eigenvalues --    6.20209   6.26238   6.26744   6.27955   6.34031
 Alpha virt. eigenvalues --    6.36535   6.40931   6.49612   6.63213   6.74465
 Alpha virt. eigenvalues --    6.76317   6.78462   6.92470   7.01754   7.22088
 Alpha virt. eigenvalues --    7.47469   7.58583   7.71344   7.71483   7.74947
 Alpha virt. eigenvalues --    7.81604   7.84996   7.87139   7.96581   8.04547
 Alpha virt. eigenvalues --    8.06746   8.28046   8.30112   8.46807   8.50152
 Alpha virt. eigenvalues --    8.53726   8.58966   8.77002   8.87535   8.89460
 Alpha virt. eigenvalues --    8.98076   9.29813   9.35275   9.37489   9.44990
 Alpha virt. eigenvalues --    9.59542   9.67056   9.92772  10.15933  10.27023
 Alpha virt. eigenvalues --   10.29673  10.36493  10.56938  10.63339  10.72506
 Alpha virt. eigenvalues --   10.74394  10.94720  11.11668  11.25908  11.42111
 Alpha virt. eigenvalues --   11.59806  11.61124  11.62147  11.84429  11.99847
 Alpha virt. eigenvalues --   12.23281  12.37401  12.59344  12.76424  12.91496
 Alpha virt. eigenvalues --   12.98493  13.36760  13.92344  14.46613  14.67764
 Alpha virt. eigenvalues --   25.93234  42.80552
          Condensed to atoms (all electrons):
               1          2          3          4
     1  O    7.843614   0.684101  -0.080542  -0.080542
     2  C    0.684101   4.199151   0.394076   0.394076
     3  H   -0.080542   0.394076   0.816224  -0.148775
     4  H   -0.080542   0.394076  -0.148775   0.816224
 Mulliken charges:
               1
     1  O   -0.366630
     2  C    0.328595
     3  H    0.019017
     4  H    0.019017
 Sum of Mulliken charges =  -0.00000
 Mulliken charges with hydrogens summed into heavy atoms:
               1
     1  O   -0.366630
     2  C    0.366630
 Electronic spatial extent (au):  <R**2>=             59.0178
 Charge=             -0.0000 electrons
 Dipole moment (field-independent basis, Debye):
    X=              0.0000    Y=             -0.0000    Z=             -2.6900  Tot=              2.6900
 Quadrupole moment (field-independent basis, Debye-Ang):
   XX=            -11.6005   YY=            -11.4127   ZZ=            -12.0785
   XY=              0.0000   XZ=              0.0000   YZ=             -0.0000
 Traceless Quadrupole moment (field-independent basis, Debye-Ang):
   XX=              0.0967   YY=              0.2845   ZZ=             -0.3812
   XY=              0.0000   XZ=              0.0000   YZ=             -0.0000
 Octapole moment (field-independent basis, Debye-Ang**2):
  XXX=              0.0000  YYY=              0.0000  ZZZ=              0.2224  XYY=              0.0000
  XXY=              0.0000  XXZ=              0.4539  XZZ=              0.0000  YZZ=              0.0000
  YYZ=             -0.6032  XYZ=             -0.0000
 Hexadecapole moment (field-independent basis, Debye-Ang**3):
 XXXX=            -10.1066 YYYY=            -17.3102 ZZZZ=            -43.4984 XXXY=             -0.0000
 XXXZ=             -0.0000 YYYX=             -0.0000 YYYZ=              0.0000 ZZZX=             -0.0000
 ZZZY=              0.0000 XXYY=             -4.9185 XXZZ=             -8.8673 YYZZ=             -9.7014
 XXYZ=              0.0000 YYXZ=             -0.0000 ZZXY=             -0.0000
 N-N= 3.192091916400D+01 E-N=-3.325062152369D+02  KE= 1.139125656358D+02
 Symmetry A1   KE= 1.036783718398D+02
 Symmetry A2   KE= 1.618096070586D-21
 Symmetry B1   KE= 3.512906819499D+00
 Symmetry B2   KE= 6.721286976505D+00
 No NMR shielding tensors so no spin-rotation constants.
 Leave Link  601 at Tue Jul  9 10:56:17 2024, MaxMem=    97648640 cpu:               4.7 elap:               0.5
 (Enter /cluster/software/Gaussian/g16_B.01/l701.exe)
 ... and contract with generalized density number  0.
 Compute integral first derivatives.
 PrsmSu:  requested number of processors reduced to:   2 ShMem   1 Linda.
 PrsmSu:  requested number of processors reduced to:  10 ShMem   1 Linda.
 Leave Link  701 at Tue Jul  9 10:56:21 2024, MaxMem=    97648640 cpu:              12.1 elap:               1.9
 (Enter /cluster/software/Gaussian/g16_B.01/l702.exe)
 L702 exits ... SP integral derivatives will be done elsewhere.
 Leave Link  702 at Tue Jul  9 10:56:21 2024, MaxMem=    97648640 cpu:               0.3 elap:               0.1
 (Enter /cluster/software/Gaussian/g16_B.01/l703.exe)
 Integral derivatives from FoFJK, PRISM(SPDF).
 Compute integral first derivatives, UseDBF=F ICtDFT=           0.
 Calling FoFJK, ICntrl=      2127 FMM=F ISym2X=1 I1Cent= 0 IOpClX= 0 NMat=1 NMatS=1 NMatT=0.
 FoFJK:  IHMeth= 1 ICntrl=    2127 DoSepK=F KAlg= 0 I1Cent=           0 FoldK=F
 IRaf=         0 NMat=       1 IRICut=       1 DoRegI=T DoRafI=F ISym2E= 1 IDoP0=0 IntGTp=1.
 FoFCou: FMM=F IPFlag=           0 FMFlag=      100000 FMFlg1=         800
         NFxFlg=           0 DoJE=F BraDBF=F KetDBF=F FulRan=T
         wScrn=  0.000000 ICntrl=      2127 IOpCl=  0 I1Cent=           0 NGrid=           0
         NMat0=    1 NMatS0=      1 NMatT0=    0 NMatD0=    1 NMtDS0=    0 NMtDT0=    0
 Petite list used in FoFCou.
 CoulSu:  requested number of processors reduced to:  10 ShMem   1 Linda.
 Leave Link  703 at Tue Jul  9 10:56:24 2024, MaxMem=    97648640 cpu:              31.4 elap:               3.1
 (Enter /cluster/software/Gaussian/g16_B.01/l716.exe)
 Dipole        = 2.12234924D-18-2.22044605D-16-1.05832639D+00
 ***** Axes restored to original set *****
 -------------------------------------------------------------------
 Center     Atomic                   Forces (Hartrees/Bohr)
 Number     Number              X              Y              Z
 -------------------------------------------------------------------
      1        8          -0.000000000   -0.000000000    0.003079204
      2        6           0.000000000   -0.000000000   -0.002311365
      3        1          -0.000193319    0.000000000   -0.000383919
      4        1           0.000193319    0.000000000   -0.000383919
 -------------------------------------------------------------------
 Cartesian Forces:  Max     0.003079204 RMS     0.001125220
 Leave Link  716 at Tue Jul  9 10:56:25 2024, MaxMem=    97648640 cpu:               0.7 elap:               0.1
 (Enter /cluster/software/Gaussian/g16_B.01/l103.exe)

 GradGradGradGradGradGradGradGradGradGradGradGradGradGradGradGradGradGrad
 Berny optimization.
 FormGI is forming the generalized inverse of G from B-inverse, IUseBI=4.
 Internal  Forces:  Max     0.003079204 RMS     0.001188815
 Search for a local minimum.
 Step number   1 out of a maximum of   20
 All quantities printed in internal units (Hartrees-Bohrs-Radians)
 RMS Force = .11888D-02 SwitMx=.10000D-02 MixMth= 1
 Mixed Optimization -- RFO/linear search
 Second derivative matrix not updated -- first step.
 The second derivative matrix:
                          R1        R2        R3        A1        A2
           R1           1.16753
           R2           0.00000   0.34473
           R3           0.00000   0.00000   0.34473
           A1           0.00000   0.00000   0.00000   0.16000
           A2           0.00000   0.00000   0.00000   0.00000   0.16000
           A3           0.00000   0.00000   0.00000   0.00000   0.00000
           D1           0.00000   0.00000   0.00000   0.00000   0.00000
                          A3        D1
           A3           0.16000
           D1           0.00000   0.00230
 ITU=  0
     Eigenvalues ---    0.00230   0.16000   0.16000   0.34473   0.34473
     Eigenvalues ---    1.16753
 RFO step:  Lambda=-9.78785849D-06 EMin= 2.30000000D-03
 Linear search not attempted -- first point.
 Iteration  1 RMS(Cart)=  0.00152210 RMS(Int)=  0.00000068
 Iteration  2 RMS(Cart)=  0.00000072 RMS(Int)=  0.00000000
 ITry= 1 IFail=0 DXMaxC= 3.10D-03 DCOld= 1.00D+10 DXMaxT= 3.00D-01 DXLimC= 3.00D+00 Rises=F
 ClnCor:  largest displacement from symmetrization is 6.42D-11 for atom     2.
 Variable       Old X    -DE/DX   Delta X   Delta X   Delta X     New X
                                 (Linear)    (Quad)   (Total)
    R1        2.22593  -0.00308   0.00000  -0.00264  -0.00264   2.22330
    R2        2.06539  -0.00037   0.00000  -0.00107  -0.00107   2.06432
    R3        2.06539  -0.00037   0.00000  -0.00107  -0.00107   2.06432
    A1        2.12991  -0.00015   0.00000  -0.00096  -0.00096   2.12895
    A2        2.12991  -0.00015   0.00000  -0.00096  -0.00096   2.12895
    A3        2.02337   0.00031   0.00000   0.00192   0.00192   2.02529
    D1        3.14159   0.00000   0.00000   0.00000   0.00000   3.14159
         Item               Value     Threshold  Converged?
 Maximum Force            0.003079     0.000002     NO 
 RMS     Force            0.001189     0.000001     NO 
 Maximum Displacement     0.003100     0.000006     NO 
 RMS     Displacement     0.001522     0.000004     NO 
 Predicted change in Energy=-4.893929D-06
 Lowest energy point so far.  Saving SCF results.
 GradGradGradGradGradGradGradGradGradGradGradGradGradGradGradGradGradGrad

 Leave Link  103 at Tue Jul  9 10:56:25 2024, MaxMem=    97648640 cpu:               1.2 elap:               0.1
 (Enter /cluster/software/Gaussian/g16_B.01/l202.exe)
                          Input orientation:                          
 ---------------------------------------------------------------------
 Center     Atomic      Atomic             Coordinates (Angstroms)
 Number     Number       Type             X           Y           Z
 ---------------------------------------------------------------------
      1          8           0        0.000000   -0.000000    0.008310
      2          6           0       -0.000000    0.000000    1.184827
      3          1           0        0.926606    0.000000    1.763379
      4          1           0       -0.926606   -0.000000    1.763379
 ---------------------------------------------------------------------
                    Distance matrix (angstroms):
                    1          2          3          4
     1  O    0.000000
     2  C    1.176517   0.000000
     3  H    1.984658   1.092393   0.000000
     4  H    1.984658   1.092393   1.853212   0.000000
 Stoichiometry    CH2O
 Framework group  C2V[C2(CO),SGV(H2)]
 Deg. of freedom     3
 Full point group                 C2V     NOp   4
 RotChk:  IX=0 Diff= 7.43D-16
 Largest Abelian subgroup         C2V     NOp   4
 Largest concise Abelian subgroup C2      NOp   2
                         Standard orientation:                         
 ---------------------------------------------------------------------
 Center     Atomic      Atomic             Coordinates (Angstroms)
 Number     Number       Type             X           Y           Z
 ---------------------------------------------------------------------
      1          8           0        0.000000   -0.000000    0.660578
      2          6           0       -0.000000    0.000000   -0.515940
      3          1           0        0.000000    0.926606   -1.094492
      4          1           0       -0.000000   -0.926606   -1.094492
 ---------------------------------------------------------------------
 Rotational constants (GHZ):         292.0194413          40.6521363          35.6844856
 Leave Link  202 at Tue Jul  9 10:56:25 2024, MaxMem=    97648640 cpu:               0.1 elap:               0.0
 (Enter /cluster/software/Gaussian/g16_B.01/l301.exe)
 Standard basis: CC-pVQZ (5D, 7F)
 Ernie: Thresh=  0.10000D-02 Tol=  0.10000D-05 Strict=F.
 Ernie:  6 primitive shells out of 90 were deleted.
 There are    84 symmetry adapted cartesian basis functions of A1  symmetry.
 There are    27 symmetry adapted cartesian basis functions of A2  symmetry.
 There are    43 symmetry adapted cartesian basis functions of B1  symmetry.
 There are    56 symmetry adapted cartesian basis functions of B2  symmetry.
 There are    64 symmetry adapted basis functions of A1  symmetry.
 There are    24 symmetry adapted basis functions of A2  symmetry.
 There are    36 symmetry adapted basis functions of B1  symmetry.
 There are    46 symmetry adapted basis functions of B2  symmetry.
   170 basis functions,   252 primitive gaussians,   210 cartesian basis functions
     8 alpha electrons        8 beta electrons
       nuclear repulsion energy        31.9543044562 Hartrees.
 IExCor=    0 DFT=F Ex=HF Corr=None ExCW=0 ScaHFX=  1.000000
 ScaDFX=  1.000000  1.000000  1.000000  1.000000 ScalE2=  1.000000  1.000000
 IRadAn=      5 IRanWt=     -1 IRanGd=            0 ICorTp=0 IEmpDi=  4
 NAtoms=    4 NActive=    4 NUniq=    3 SFac= 1.78D+00 NAtFMM=   60 NAOKFM=F Big=F
 Integral buffers will be    131072 words long.
 Raffenetti 1 integral format.
 Two-electron integral symmetry is turned on.
 Leave Link  301 at Tue Jul  9 10:56:25 2024, MaxMem=    97648640 cpu:               0.7 elap:               0.1
 (Enter /cluster/software/Gaussian/g16_B.01/l302.exe)
 NPDir=0 NMtPBC=     1 NCelOv=     1 NCel=       1 NClECP=     1 NCelD=      1
         NCelK=      1 NCelE2=     1 NClLst=     1 CellRange=     0.0.
 One-electron integrals computed using PRISM.
 One-electron integral symmetry used in STVInt
 PrsmSu:  requested number of processors reduced to:   4 ShMem   1 Linda.
 NBasis=   170 RedAO= T EigKep=  2.32D-04  NBF=    64    24    36    46
 NBsUse=   170 1.00D-06 EigRej= -1.00D+00 NBFU=    64    24    36    46
 Leave Link  302 at Tue Jul  9 10:56:25 2024, MaxMem=    97648640 cpu:               2.2 elap:               0.2
 (Enter /cluster/software/Gaussian/g16_B.01/l303.exe)
 DipDrv:  MaxL=1.
 Leave Link  303 at Tue Jul  9 10:56:25 2024, MaxMem=    97648640 cpu:               0.4 elap:               0.1
 (Enter /cluster/software/Gaussian/g16_B.01/l401.exe)
 Initial guess from the checkpoint file:  "inputFull_3q.chk"
 B after Tr=    -0.000000    0.000000   -0.000000
         Rot=    1.000000   -0.000000   -0.000000    0.000000 Ang=   0.00 deg.
 Guess basis will be translated and rotated to current coordinates.
 JPrj=2 DoOrth=T DoCkMO=T.
 Initial guess orbital symmetries:
       Occupied  (A1) (A1) (A1) (A1) (B2) (A1) (B1) (B2)
       Virtual   (B1) (A1) (B2) (A1) (B1) (A1) (B2) (A1) (A1) (A2)
                 (B2) (A1) (B1) (B2) (B1) (A1) (B2) (A2) (B1) (A1)
                 (B2) (A1) (B2) (A1) (A1) (A1) (A1) (B1) (A2) (B2)
                 (B1) (A1) (B2) (B2) (A2) (A1) (A1) (B1) (B1) (B2)
                 (A2) (A1) (B2) (A1) (A2) (B1) (B2) (B1) (A1) (A1)
                 (B2) (A1) (A2) (B2) (B1) (B1) (A1) (B2) (B1) (A1)
                 (B2) (A2) (A1) (B2) (B2) (A1) (B1) (A1) (A1) (B2)
                 (A2) (B1) (A2) (A1) (B1) (A1) (A1) (B2) (A1) (B2)
                 (A1) (B2) (B1) (A2) (A2) (B1) (A1) (B1) (A2) (B2)
                 (B2) (A1) (B2) (B1) (A2) (B2) (B1) (A1) (A1) (B2)
                 (A1) (B1) (A1) (A2) (B2) (B1) (A1) (A1) (B1) (B2)
                 (A2) (A2) (A1) (B1) (B2) (A1) (B2) (A1) (A1) (B1)
                 (B2) (A2) (A2) (B1) (A1) (B2) (A1) (A2) (B2) (A1)
                 (B1) (B2) (A1) (A2) (B1) (A1) (B2) (A1) (B1) (B2)
                 (A2) (B1) (B2) (B2) (A1) (B1) (A1) (B2) (A1) (A2)
                 (A1) (B1) (B2) (A2) (A1) (B2) (A1) (B1) (B2) (A1)
                 (A1) (A1)
 The electronic state of the initial guess is 1-A1.
 Leave Link  401 at Tue Jul  9 10:56:26 2024, MaxMem=    97648640 cpu:               2.1 elap:               0.2
 (Enter /cluster/software/Gaussian/g16_B.01/l502.exe)
 Integral symmetry usage will be decided dynamically.
 Closed shell SCF:
 Using DIIS extrapolation, IDIIS=  1040.
 NGot=    97648640 LenX=    97554016 LenY=    97509475
 Requested convergence on RMS density matrix=1.00D-08 within 128 cycles.
 Requested convergence on MAX density matrix=1.00D-06.
 Requested convergence on             energy=1.00D-06.
 No special actions if energy rises.
 Fock matrices will be formed incrementally for  20 cycles.

 Cycle   1  Pass 1  IDiag  1:
 FoFJK:  IHMeth= 1 ICntrl=       0 DoSepK=F KAlg= 0 I1Cent=           0 FoldK=F
 IRaf= 990000000 NMat=       1 IRICut=       1 DoRegI=T DoRafI=F ISym2E= 1 IDoP0=0 IntGTp=1.
 FoFCou: FMM=F IPFlag=           0 FMFlag=      100000 FMFlg1=           0
         NFxFlg=           0 DoJE=F BraDBF=F KetDBF=F FulRan=T
         wScrn=  0.000000 ICntrl=         0 IOpCl=  0 I1Cent=           0 NGrid=           0
         NMat0=    1 NMatS0=      1 NMatT0=    0 NMatD0=    1 NMtDS0=    0 NMtDT0=    0
 Petite list used in FoFCou.
 E= -113.922380746618    
 DIIS: error= 1.55D-04 at cycle   1 NSaved=   1.
 NSaved= 1 IEnMin= 1 EnMin= -113.922380746618     IErMin= 1 ErrMin= 1.55D-04
 ErrMax= 1.55D-04  0.00D+00 EMaxC= 1.00D-01 BMatC= 2.24D-06 BMatP= 2.24D-06
 IDIUse=3 WtCom= 9.98D-01 WtEn= 1.55D-03
 Coeff-Com:  0.100D+01
 Coeff-En:   0.100D+01
 Coeff:      0.100D+01
 Gap=     0.557 Goal=   None    Shift=    0.000
 RMSDP=3.76D-06 MaxDP=7.47D-05              OVMax= 3.45D-04

 Cycle   2  Pass 1  IDiag  1:
 RMSU=  3.76D-06    CP:  1.00D+00
 E= -113.922382273199     Delta-E=       -0.000001526581 Rises=F Damp=F
 DIIS: error= 3.67D-05 at cycle   2 NSaved=   2.
 NSaved= 2 IEnMin= 2 EnMin= -113.922382273199     IErMin= 2 ErrMin= 3.67D-05
 ErrMax= 3.67D-05  0.00D+00 EMaxC= 1.00D-01 BMatC= 1.30D-07 BMatP= 2.24D-06
 IDIUse=1 WtCom= 1.00D+00 WtEn= 0.00D+00
 Coeff-Com:  0.414D-01 0.959D+00
 Coeff:      0.414D-01 0.959D+00
 Gap=     0.556 Goal=   None    Shift=    0.000
 RMSDP=2.25D-06 MaxDP=7.47D-05 DE=-1.53D-06 OVMax= 1.57D-04

 Cycle   3  Pass 1  IDiag  1:
 RMSU=  2.21D-06    CP:  1.00D+00  1.10D+00
 E= -113.922382403491     Delta-E=       -0.000000130291 Rises=F Damp=F
 DIIS: error= 1.30D-05 at cycle   3 NSaved=   3.
 NSaved= 3 IEnMin= 3 EnMin= -113.922382403491     IErMin= 3 ErrMin= 1.30D-05
 ErrMax= 1.30D-05  0.00D+00 EMaxC= 1.00D-01 BMatC= 1.68D-08 BMatP= 1.30D-07
 IDIUse=1 WtCom= 1.00D+00 WtEn= 0.00D+00
 Coeff-Com: -0.464D-01 0.103D+00 0.943D+00
 Coeff:     -0.464D-01 0.103D+00 0.943D+00
 Gap=     0.556 Goal=   None    Shift=    0.000
 RMSDP=4.61D-07 MaxDP=1.38D-05 DE=-1.30D-07 OVMax= 5.84D-05

 Cycle   4  Pass 1  IDiag  1:
 RMSU=  3.37D-07    CP:  1.00D+00  1.17D+00  1.07D+00
 E= -113.922382423152     Delta-E=       -0.000000019661 Rises=F Damp=F
 DIIS: error= 5.97D-06 at cycle   4 NSaved=   4.
 NSaved= 4 IEnMin= 4 EnMin= -113.922382423152     IErMin= 4 ErrMin= 5.97D-06
 ErrMax= 5.97D-06  0.00D+00 EMaxC= 1.00D-01 BMatC= 2.22D-09 BMatP= 1.68D-08
 IDIUse=1 WtCom= 1.00D+00 WtEn= 0.00D+00
 Coeff-Com: -0.793D-02-0.610D-01 0.148D+00 0.921D+00
 Coeff:     -0.793D-02-0.610D-01 0.148D+00 0.921D+00
 Gap=     0.556 Goal=   None    Shift=    0.000
 RMSDP=3.23D-07 MaxDP=7.41D-06 DE=-1.97D-08 OVMax= 2.22D-05

 Cycle   5  Pass 1  IDiag  1:
 RMSU=  1.51D-07    CP:  1.00D+00  1.19D+00  1.19D+00  1.13D+00
 E= -113.922382425808     Delta-E=       -0.000000002656 Rises=F Damp=F
 DIIS: error= 3.10D-06 at cycle   5 NSaved=   5.
 NSaved= 5 IEnMin= 5 EnMin= -113.922382425808     IErMin= 5 ErrMin= 3.10D-06
 ErrMax= 3.10D-06  0.00D+00 EMaxC= 1.00D-01 BMatC= 4.66D-10 BMatP= 2.22D-09
 IDIUse=1 WtCom= 1.00D+00 WtEn= 0.00D+00
 Coeff-Com:  0.573D-02-0.334D-01-0.121D+00 0.281D+00 0.867D+00
 Coeff:      0.573D-02-0.334D-01-0.121D+00 0.281D+00 0.867D+00
 Gap=     0.556 Goal=   None    Shift=    0.000
 RMSDP=1.00D-07 MaxDP=2.77D-06 DE=-2.66D-09 OVMax= 9.76D-06

 Cycle   6  Pass 1  IDiag  1:
 RMSU=  2.74D-08    CP:  1.00D+00  1.20D+00  1.22D+00  1.29D+00  1.04D+00
 E= -113.922382426259     Delta-E=       -0.000000000451 Rises=F Damp=F
 DIIS: error= 4.18D-07 at cycle   6 NSaved=   6.
 NSaved= 6 IEnMin= 6 EnMin= -113.922382426259     IErMin= 6 ErrMin= 4.18D-07
 ErrMax= 4.18D-07  0.00D+00 EMaxC= 1.00D-01 BMatC= 9.70D-12 BMatP= 4.66D-10
 IDIUse=1 WtCom= 1.00D+00 WtEn= 0.00D+00
 Coeff-Com: -0.102D-02 0.121D-01 0.167D-01-0.977D-01-0.267D+00 0.134D+01
 Coeff:     -0.102D-02 0.121D-01 0.167D-01-0.977D-01-0.267D+00 0.134D+01
 Gap=     0.556 Goal=   None    Shift=    0.000
 RMSDP=2.52D-08 MaxDP=6.89D-07 DE=-4.51D-10 OVMax= 2.04D-06

 Cycle   7  Pass 1  IDiag  1:
 RMSU=  6.56D-09    CP:  1.00D+00  1.20D+00  1.23D+00  1.32D+00  1.13D+00
                    CP:  1.44D+00
 E= -113.922382426278     Delta-E=       -0.000000000019 Rises=F Damp=F
 DIIS: error= 8.49D-08 at cycle   7 NSaved=   7.
 NSaved= 7 IEnMin= 7 EnMin= -113.922382426278     IErMin= 7 ErrMin= 8.49D-08
 ErrMax= 8.49D-08  0.00D+00 EMaxC= 1.00D-01 BMatC= 4.75D-13 BMatP= 9.70D-12
 IDIUse=1 WtCom= 1.00D+00 WtEn= 0.00D+00
 Coeff-Com:  0.175D-03-0.304D-02-0.236D-02 0.307D-01 0.470D-01-0.419D+00
 Coeff-Com:  0.135D+01
 Coeff:      0.175D-03-0.304D-02-0.236D-02 0.307D-01 0.470D-01-0.419D+00
 Coeff:      0.135D+01
 Gap=     0.556 Goal=   None    Shift=    0.000
 RMSDP=4.96D-09 MaxDP=2.01D-07 DE=-1.93D-11 OVMax= 6.22D-07

 SCF Done:  E(RHF) =  -113.922382426     A.U. after    7 cycles
            NFock=  7  Conv=0.50D-08     -V/T= 2.0000
 KE= 1.139210907519D+02 PE=-3.325789227500D+02 EE= 7.278114511564D+01
 Leave Link  502 at Tue Jul  9 10:56:30 2024, MaxMem=    97648640 cpu:              75.2 elap:               4.8
 (Enter /cluster/software/Gaussian/g16_B.01/l701.exe)
 ... and contract with generalized density number  0.
 Compute integral first derivatives.
 PrsmSu:  requested number of processors reduced to:   2 ShMem   1 Linda.
 PrsmSu:  requested number of processors reduced to:  10 ShMem   1 Linda.
 Leave Link  701 at Tue Jul  9 10:56:31 2024, MaxMem=    97648640 cpu:               1.5 elap:               0.2
 (Enter /cluster/software/Gaussian/g16_B.01/l702.exe)
 L702 exits ... SP integral derivatives will be done elsewhere.
 Leave Link  702 at Tue Jul  9 10:56:31 2024, MaxMem=    97648640 cpu:               0.3 elap:               0.0
 (Enter /cluster/software/Gaussian/g16_B.01/l703.exe)
 Integral derivatives from FoFJK, PRISM(SPDF).
 Compute integral first derivatives, UseDBF=F ICtDFT=           0.
 Calling FoFJK, ICntrl=      2127 FMM=F ISym2X=1 I1Cent= 0 IOpClX= 0 NMat=1 NMatS=1 NMatT=0.
 FoFJK:  IHMeth= 1 ICntrl=    2127 DoSepK=F KAlg= 0 I1Cent=           0 FoldK=F
 IRaf=         0 NMat=       1 IRICut=       1 DoRegI=T DoRafI=F ISym2E= 1 IDoP0=0 IntGTp=1.
 FoFCou: FMM=F IPFlag=           0 FMFlag=      100000 FMFlg1=         800
         NFxFlg=           0 DoJE=F BraDBF=F KetDBF=F FulRan=T
         wScrn=  0.000000 ICntrl=      2127 IOpCl=  0 I1Cent=           0 NGrid=           0
         NMat0=    1 NMatS0=      1 NMatT0=    0 NMatD0=    1 NMtDS0=    0 NMtDT0=    0
 Petite list used in FoFCou.
 CoulSu:  requested number of processors reduced to:  10 ShMem   1 Linda.
 Leave Link  703 at Tue Jul  9 10:56:33 2024, MaxMem=    97648640 cpu:              28.3 elap:               2.8
 (Enter /cluster/software/Gaussian/g16_B.01/l716.exe)
 Dipole        = 2.19872769D-18-4.44089210D-16-1.05539237D+00
 ***** Axes restored to original set *****
 -------------------------------------------------------------------
 Center     Atomic                   Forces (Hartrees/Bohr)
 Number     Number              X              Y              Z
 -------------------------------------------------------------------
      1        8          -0.000000000   -0.000000000    0.000084186
      2        6          -0.000000000   -0.000000000   -0.000253011
      3        1           0.000050259    0.000000000    0.000084413
      4        1          -0.000050259    0.000000000    0.000084413
 -------------------------------------------------------------------
 Cartesian Forces:  Max     0.000253011 RMS     0.000086797
 Leave Link  716 at Tue Jul  9 10:56:33 2024, MaxMem=    97648640 cpu:               0.3 elap:               0.0
 (Enter /cluster/software/Gaussian/g16_B.01/l103.exe)

 GradGradGradGradGradGradGradGradGradGradGradGradGradGradGradGradGradGrad
 Berny optimization.
 Using GEDIIS/GDIIS optimizer.
 FormGI is forming the generalized inverse of G from B-inverse, IUseBI=4.
 Internal  Forces:  Max     0.000087338 RMS     0.000063349
 Search for a local minimum.
 Step number   2 out of a maximum of   20
 All quantities printed in internal units (Hartrees-Bohrs-Radians)
 RMS Force = .63349D-04 SwitMx=.10000D-02 MixMth= 2
 Mixed Optimization -- En-DIIS/RFO-DIIS
 Update second derivatives using D2CorX and points    1    2
 DE= -4.83D-06 DEPred=-4.89D-06 R= 9.87D-01
 TightC=F SS=  1.41D+00  RLast= 3.84D-03 DXNew= 5.0454D-01 1.1521D-02
 Trust test= 9.87D-01 RLast= 3.84D-03 DXMaxT set to 3.00D-01
 The second derivative matrix:
                          R1        R2        R3        A1        A2
           R1           1.10215
           R2           0.02157   0.35177
           R3           0.02157   0.00704   0.35177
           A1           0.00735   0.00269   0.00269   0.16102
           A2           0.00735   0.00269   0.00269   0.00102   0.16102
           A3          -0.01469  -0.00537  -0.00537  -0.00204  -0.00204
           D1           0.00000   0.00000   0.00000   0.00000   0.00000
                          A3        D1
           A3           0.16408
           D1          -0.00000   0.00230
 ITU=  1  0
 Use linear search instead of GDIIS.
     Eigenvalues ---    0.00230   0.16000   0.16537   0.34473   0.35793
     Eigenvalues ---    1.10376
 RFO step:  Lambda=-8.17051277D-08 EMin= 2.30000000D-03
 Quartic linear search produced a step of -0.01428.
 Iteration  1 RMS(Cart)=  0.00015339 RMS(Int)=  0.00000003
 Iteration  2 RMS(Cart)=  0.00000003 RMS(Int)=  0.00000000
 ITry= 1 IFail=0 DXMaxC= 2.47D-04 DCOld= 1.00D+10 DXMaxT= 3.00D-01 DXLimC= 3.00D+00 Rises=F
 ClnCor:  largest displacement from symmetrization is 6.43D-11 for atom     2.
 Variable       Old X    -DE/DX   Delta X   Delta X   Delta X     New X
                                 (Linear)    (Quad)   (Total)
    R1        2.22330  -0.00008   0.00004  -0.00013  -0.00009   2.22320
    R2        2.06432   0.00009   0.00002   0.00023   0.00024   2.06456
    R3        2.06432   0.00009   0.00002   0.00023   0.00024   2.06456
    A1        2.12895   0.00003   0.00001   0.00017   0.00018   2.12913
    A2        2.12895   0.00003   0.00001   0.00017   0.00018   2.12913
    A3        2.02529  -0.00006  -0.00003  -0.00034  -0.00036   2.02492
    D1        3.14159   0.00000   0.00000   0.00000   0.00000   3.14159
         Item               Value     Threshold  Converged?
 Maximum Force            0.000087     0.000002     NO 
 RMS     Force            0.000063     0.000001     NO 
 Maximum Displacement     0.000247     0.000006     NO 
 RMS     Displacement     0.000153     0.000004     NO 
 Predicted change in Energy=-4.191401D-08
 Lowest energy point so far.  Saving SCF results.
 GradGradGradGradGradGradGradGradGradGradGradGradGradGradGradGradGradGrad

 Leave Link  103 at Tue Jul  9 10:56:33 2024, MaxMem=    97648640 cpu:               0.2 elap:               0.0
 (Enter /cluster/software/Gaussian/g16_B.01/l202.exe)
                          Input orientation:                          
 ---------------------------------------------------------------------
 Center     Atomic      Atomic             Coordinates (Angstroms)
 Number     Number       Type             X           Y           Z
 ---------------------------------------------------------------------
      1          8           0        0.000000   -0.000000    0.008228
      2          6           0       -0.000000    0.000000    1.184696
      3          1           0        0.926609    0.000000    1.763485
      4          1           0       -0.926609   -0.000000    1.763485
 ---------------------------------------------------------------------
                    Distance matrix (angstroms):
                    1          2          3          4
     1  O    0.000000
     2  C    1.176468   0.000000
     3  H    1.984825   1.092520   0.000000
     4  H    1.984825   1.092520   1.853217   0.000000
 Stoichiometry    CH2O
 Framework group  C2V[C2(CO),SGV(H2)]
 Deg. of freedom     3
 Full point group                 C2V     NOp   4
 RotChk:  IX=0 Diff= 2.33D-15
 Largest Abelian subgroup         C2V     NOp   4
 Largest concise Abelian subgroup C2      NOp   2
                         Standard orientation:                         
 ---------------------------------------------------------------------
 Center     Atomic      Atomic             Coordinates (Angstroms)
 Number     Number       Type             X           Y           Z
 ---------------------------------------------------------------------
      1          8           0       -0.000000   -0.000000    0.660583
      2          6           0        0.000000    0.000000   -0.515885
      3          1           0       -0.000000    0.926609   -1.094674
      4          1           0       -0.000000   -0.926609   -1.094674
 ---------------------------------------------------------------------
 Rotational constants (GHZ):         292.0178924          40.6515328          35.6839975
 Leave Link  202 at Tue Jul  9 10:56:34 2024, MaxMem=    97648640 cpu:               0.1 elap:               0.0
 (Enter /cluster/software/Gaussian/g16_B.01/l301.exe)
 Standard basis: CC-pVQZ (5D, 7F)
 Ernie: Thresh=  0.10000D-02 Tol=  0.10000D-05 Strict=F.
 Ernie:  6 primitive shells out of 90 were deleted.
 There are    84 symmetry adapted cartesian basis functions of A1  symmetry.
 There are    27 symmetry adapted cartesian basis functions of A2  symmetry.
 There are    43 symmetry adapted cartesian basis functions of B1  symmetry.
 There are    56 symmetry adapted cartesian basis functions of B2  symmetry.
 There are    64 symmetry adapted basis functions of A1  symmetry.
 There are    24 symmetry adapted basis functions of A2  symmetry.
 There are    36 symmetry adapted basis functions of B1  symmetry.
 There are    46 symmetry adapted basis functions of B2  symmetry.
   170 basis functions,   252 primitive gaussians,   210 cartesian basis functions
     8 alpha electrons        8 beta electrons
       nuclear repulsion energy        31.9541725905 Hartrees.
 IExCor=    0 DFT=F Ex=HF Corr=None ExCW=0 ScaHFX=  1.000000
 ScaDFX=  1.000000  1.000000  1.000000  1.000000 ScalE2=  1.000000  1.000000
 IRadAn=      5 IRanWt=     -1 IRanGd=            0 ICorTp=0 IEmpDi=  4
 NAtoms=    4 NActive=    4 NUniq=    3 SFac= 1.78D+00 NAtFMM=   60 NAOKFM=F Big=F
 Integral buffers will be    131072 words long.
 Raffenetti 1 integral format.
 Two-electron integral symmetry is turned on.
 Leave Link  301 at Tue Jul  9 10:56:34 2024, MaxMem=    97648640 cpu:               0.7 elap:               0.1
 (Enter /cluster/software/Gaussian/g16_B.01/l302.exe)
 NPDir=0 NMtPBC=     1 NCelOv=     1 NCel=       1 NClECP=     1 NCelD=      1
         NCelK=      1 NCelE2=     1 NClLst=     1 CellRange=     0.0.
 One-electron integrals computed using PRISM.
 One-electron integral symmetry used in STVInt
 PrsmSu:  requested number of processors reduced to:   4 ShMem   1 Linda.
 NBasis=   170 RedAO= T EigKep=  2.32D-04  NBF=    64    24    36    46
 NBsUse=   170 1.00D-06 EigRej= -1.00D+00 NBFU=    64    24    36    46
 Leave Link  302 at Tue Jul  9 10:56:34 2024, MaxMem=    97648640 cpu:               2.2 elap:               0.2
 (Enter /cluster/software/Gaussian/g16_B.01/l303.exe)
 DipDrv:  MaxL=1.
 Leave Link  303 at Tue Jul  9 10:56:34 2024, MaxMem=    97648640 cpu:               0.4 elap:               0.1
 (Enter /cluster/software/Gaussian/g16_B.01/l401.exe)
 Initial guess from the checkpoint file:  "inputFull_3q.chk"
 B after Tr=    -0.000000   -0.000000    0.000000
         Rot=    1.000000   -0.000000   -0.000000   -0.000000 Ang=   0.00 deg.
 Guess basis will be translated and rotated to current coordinates.
 JPrj=2 DoOrth=T DoCkMO=T.
 Initial guess orbital symmetries:
       Occupied  (A1) (A1) (A1) (A1) (B2) (A1) (B1) (B2)
       Virtual   (B1) (A1) (B2) (A1) (B1) (A1) (B2) (A1) (A1) (A2)
                 (B2) (A1) (B1) (B2) (B1) (A1) (B2) (A2) (B1) (A1)
                 (B2) (A1) (B2) (A1) (A1) (A1) (A1) (B1) (A2) (B2)
                 (B1) (A1) (B2) (B2) (A2) (A1) (A1) (B1) (B1) (B2)
                 (A2) (A1) (B2) (A1) (A2) (B1) (B2) (B1) (A1) (A1)
                 (B2) (A1) (A2) (B2) (B1) (B1) (A1) (B2) (B1) (A1)
                 (B2) (A2) (A1) (B2) (B2) (A1) (B1) (A1) (A1) (B2)
                 (A2) (B1) (A2) (A1) (B1) (A1) (A1) (B2) (A1) (B2)
                 (A1) (B2) (B1) (A2) (A2) (B1) (A1) (B1) (A2) (B2)
                 (B2) (A1) (B2) (B1) (A2) (B2) (B1) (A1) (A1) (B2)
                 (A1) (B1) (A1) (A2) (B2) (B1) (A1) (A1) (B1) (B2)
                 (A2) (A2) (A1) (B1) (B2) (A1) (B2) (A1) (A1) (B1)
                 (B2) (A2) (A2) (B1) (A1) (B2) (A1) (A2) (B2) (A1)
                 (B1) (B2) (A1) (A2) (B1) (A1) (B2) (A1) (B1) (B2)
                 (A2) (B1) (B2) (B2) (A1) (B1) (A1) (B2) (A1) (A2)
                 (A1) (B1) (B2) (A2) (A1) (B2) (A1) (B1) (B2) (A1)
                 (A1) (A1)
 The electronic state of the initial guess is 1-A1.
 Leave Link  401 at Tue Jul  9 10:56:34 2024, MaxMem=    97648640 cpu:               1.8 elap:               0.1
 (Enter /cluster/software/Gaussian/g16_B.01/l502.exe)
 Integral symmetry usage will be decided dynamically.
 Closed shell SCF:
 Using DIIS extrapolation, IDIIS=  1040.
 NGot=    97648640 LenX=    97554016 LenY=    97509475
 Requested convergence on RMS density matrix=1.00D-08 within 128 cycles.
 Requested convergence on MAX density matrix=1.00D-06.
 Requested convergence on             energy=1.00D-06.
 No special actions if energy rises.
 Fock matrices will be formed incrementally for  20 cycles.

 Cycle   1  Pass 1  IDiag  1:
 FoFJK:  IHMeth= 1 ICntrl=       0 DoSepK=F KAlg= 0 I1Cent=           0 FoldK=F
 IRaf= 990000000 NMat=       1 IRICut=       1 DoRegI=T DoRafI=F ISym2E= 1 IDoP0=0 IntGTp=1.
 FoFCou: FMM=F IPFlag=           0 FMFlag=      100000 FMFlg1=           0
         NFxFlg=           0 DoJE=F BraDBF=F KetDBF=F FulRan=T
         wScrn=  0.000000 ICntrl=         0 IOpCl=  0 I1Cent=           0 NGrid=           0
         NMat0=    1 NMatS0=      1 NMatT0=    0 NMatD0=    1 NMtDS0=    0 NMtDT0=    0
 Petite list used in FoFCou.
 E= -113.922382462377    
 DIIS: error= 1.50D-05 at cycle   1 NSaved=   1.
 NSaved= 1 IEnMin= 1 EnMin= -113.922382462377     IErMin= 1 ErrMin= 1.50D-05
 ErrMax= 1.50D-05  0.00D+00 EMaxC= 1.00D-01 BMatC= 1.64D-08 BMatP= 1.64D-08
 IDIUse=1 WtCom= 1.00D+00 WtEn= 0.00D+00
 Coeff-Com:  0.100D+01
 Coeff:      0.100D+01
 Gap=     0.556 Goal=   None    Shift=    0.000
 RMSDP=4.89D-07 MaxDP=1.14D-05              OVMax= 4.58D-05

 Cycle   2  Pass 1  IDiag  1:
 RMSU=  4.89D-07    CP:  1.00D+00
 E= -113.922382474927     Delta-E=       -0.000000012550 Rises=F Damp=F
 DIIS: error= 5.96D-06 at cycle   2 NSaved=   2.
 NSaved= 2 IEnMin= 2 EnMin= -113.922382474927     IErMin= 2 ErrMin= 5.96D-06
 ErrMax= 5.96D-06  0.00D+00 EMaxC= 1.00D-01 BMatC= 2.39D-09 BMatP= 1.64D-08
 IDIUse=1 WtCom= 1.00D+00 WtEn= 0.00D+00
 Coeff-Com:  0.132D+00 0.868D+00
 Coeff:      0.132D+00 0.868D+00
 Gap=     0.556 Goal=   None    Shift=    0.000
 RMSDP=2.03D-07 MaxDP=4.58D-06 DE=-1.26D-08 OVMax= 1.84D-05

 Cycle   3  Pass 1  IDiag  1:
 RMSU=  2.02D-07    CP:  1.00D+00  1.00D+00
 E= -113.922382476512     Delta-E=       -0.000000001584 Rises=F Damp=F
 DIIS: error= 2.56D-06 at cycle   3 NSaved=   3.
 NSaved= 3 IEnMin= 3 EnMin= -113.922382476512     IErMin= 3 ErrMin= 2.56D-06
 ErrMax= 2.56D-06  0.00D+00 EMaxC= 1.00D-01 BMatC= 6.35D-10 BMatP= 2.39D-09
 IDIUse=1 WtCom= 1.00D+00 WtEn= 0.00D+00
 Coeff-Com: -0.731D-01 0.307D+00 0.766D+00
 Coeff:     -0.731D-01 0.307D+00 0.766D+00
 Gap=     0.556 Goal=   None    Shift=    0.000
 RMSDP=7.65D-08 MaxDP=2.37D-06 DE=-1.58D-09 OVMax= 7.78D-06

 Cycle   4  Pass 1  IDiag  1:
 RMSU=  4.60D-08    CP:  1.00D+00  1.12D+00  8.77D-01
 E= -113.922382477041     Delta-E=       -0.000000000529 Rises=F Damp=F
 DIIS: error= 7.12D-07 at cycle   4 NSaved=   4.
 NSaved= 4 IEnMin= 4 EnMin= -113.922382477041     IErMin= 4 ErrMin= 7.12D-07
 ErrMax= 7.12D-07  0.00D+00 EMaxC= 1.00D-01 BMatC= 1.10D-11 BMatP= 6.35D-10
 IDIUse=1 WtCom= 1.00D+00 WtEn= 0.00D+00
 Coeff-Com:  0.660D-02-0.991D-01-0.119D+00 0.121D+01
 Coeff:      0.660D-02-0.991D-01-0.119D+00 0.121D+01
 Gap=     0.556 Goal=   None    Shift=    0.000
 RMSDP=2.85D-08 MaxDP=8.08D-07 DE=-5.29D-10 OVMax= 3.58D-06

 Cycle   5  Pass 1  IDiag  1:
 RMSU=  1.06D-08    CP:  1.00D+00  1.15D+00  9.35D-01  1.43D+00
 E= -113.922382477067     Delta-E=       -0.000000000026 Rises=F Damp=F
 DIIS: error= 1.12D-07 at cycle   5 NSaved=   5.
 NSaved= 5 IEnMin= 5 EnMin= -113.922382477067     IErMin= 5 ErrMin= 1.12D-07
 ErrMax= 1.12D-07  0.00D+00 EMaxC= 1.00D-01 BMatC= 3.43D-13 BMatP= 1.10D-11
 IDIUse=1 WtCom= 1.00D+00 WtEn= 0.00D+00
 Coeff-Com:  0.144D-02-0.212D-02-0.446D-02-0.165D+00 0.117D+01
 Coeff:      0.144D-02-0.212D-02-0.446D-02-0.165D+00 0.117D+01
 Gap=     0.556 Goal=   None    Shift=    0.000
 RMSDP=7.61D-09 MaxDP=1.83D-07 DE=-2.61D-11 OVMax= 7.29D-07

 SCF Done:  E(RHF) =  -113.922382477     A.U. after    5 cycles
            NFock=  5  Conv=0.76D-08     -V/T= 2.0000
 KE= 1.139209001195D+02 PE=-3.325783573639D+02 EE= 7.278090217673D+01
 Leave Link  502 at Tue Jul  9 10:56:37 2024, MaxMem=    97648640 cpu:              54.8 elap:               3.5
 (Enter /cluster/software/Gaussian/g16_B.01/l701.exe)
 ... and contract with generalized density number  0.
 Compute integral first derivatives.
 PrsmSu:  requested number of processors reduced to:   2 ShMem   1 Linda.
 PrsmSu:  requested number of processors reduced to:  10 ShMem   1 Linda.
 Leave Link  701 at Tue Jul  9 10:56:38 2024, MaxMem=    97648640 cpu:               1.5 elap:               0.2
 (Enter /cluster/software/Gaussian/g16_B.01/l702.exe)
 L702 exits ... SP integral derivatives will be done elsewhere.
 Leave Link  702 at Tue Jul  9 10:56:38 2024, MaxMem=    97648640 cpu:               0.3 elap:               0.0
 (Enter /cluster/software/Gaussian/g16_B.01/l703.exe)
 Integral derivatives from FoFJK, PRISM(SPDF).
 Compute integral first derivatives, UseDBF=F ICtDFT=           0.
 Calling FoFJK, ICntrl=      2127 FMM=F ISym2X=1 I1Cent= 0 IOpClX= 0 NMat=1 NMatS=1 NMatT=0.
 FoFJK:  IHMeth= 1 ICntrl=    2127 DoSepK=F KAlg= 0 I1Cent=           0 FoldK=F
 IRaf=         0 NMat=       1 IRICut=       1 DoRegI=T DoRafI=F ISym2E= 1 IDoP0=0 IntGTp=1.
 FoFCou: FMM=F IPFlag=           0 FMFlag=      100000 FMFlg1=         800
         NFxFlg=           0 DoJE=F BraDBF=F KetDBF=F FulRan=T
         wScrn=  0.000000 ICntrl=      2127 IOpCl=  0 I1Cent=           0 NGrid=           0
         NMat0=    1 NMatS0=      1 NMatT0=    0 NMatD0=    1 NMtDS0=    0 NMtDT0=    0
 Petite list used in FoFCou.
 CoulSu:  requested number of processors reduced to:  10 ShMem   1 Linda.
 Leave Link  703 at Tue Jul  9 10:56:40 2024, MaxMem=    97648640 cpu:              28.2 elap:               2.7
 (Enter /cluster/software/Gaussian/g16_B.01/l716.exe)
 Dipole        = 2.21038452D-18 0.00000000D+00-1.05525321D+00
 ***** Axes restored to original set *****
 -------------------------------------------------------------------
 Center     Atomic                   Forces (Hartrees/Bohr)
 Number     Number              X              Y              Z
 -------------------------------------------------------------------
      1        8           0.000000000   -0.000000000    0.000028156
      2        6          -0.000000000   -0.000000000   -0.000062081
      3        1           0.000002875    0.000000000    0.000016963
      4        1          -0.000002875    0.000000000    0.000016963
 -------------------------------------------------------------------
 Cartesian Forces:  Max     0.000062081 RMS     0.000020894
 Leave Link  716 at Tue Jul  9 10:56:41 2024, MaxMem=    97648640 cpu:               0.3 elap:               0.0
 (Enter /cluster/software/Gaussian/g16_B.01/l103.exe)

 GradGradGradGradGradGradGradGradGradGradGradGradGradGradGradGradGradGrad
 Berny optimization.
 Using GEDIIS/GDIIS optimizer.
 FormGI is forming the generalized inverse of G from B-inverse, IUseBI=4.
 Internal  Forces:  Max     0.000028156 RMS     0.000014755
 Search for a local minimum.
 Step number   3 out of a maximum of   20
 All quantities printed in internal units (Hartrees-Bohrs-Radians)
 RMS Force = .14755D-04 SwitMx=.10000D-02 MixMth= 2
 Mixed Optimization -- En-DIIS/RFO-DIIS
 Swapping is turned off.
 Update second derivatives using D2CorX and points    1    2    3
 DE= -5.08D-08 DEPred=-4.19D-08 R= 1.21D+00
 Trust test= 1.21D+00 RLast= 5.69D-04 DXMaxT set to 3.00D-01
 The second derivative matrix:
                          R1        R2        R3        A1        A2
           R1           1.05963
           R2           0.04248   0.34768
           R3           0.04248   0.00295   0.34768
           A1           0.02034  -0.00414  -0.00414   0.15707
           A2           0.02034  -0.00414  -0.00414  -0.00293   0.15707
           A3          -0.04068   0.00827   0.00827   0.00586   0.00586
           D1          -0.00000   0.00000   0.00000   0.00000   0.00000
                          A3        D1
           A3           0.14829
           D1          -0.00000   0.00230
 ITU=  0  1  0
     Eigenvalues ---    0.00230   0.13825   0.16000   0.34473   0.34721
     Eigenvalues ---    1.06722
 En-DIIS/RFO-DIIS/Sim-DIIS IScMMF=       -3 using points:     3    2
 RFO step:  Lambda=-4.51212021D-09.
 NNeg= 0 NGDIIS= 2 SimSw=  2.50D-03 Rises=F DC= -5.08D-08 SmlDif=  1.00D-05
 NRisDI= 0 DoIntr=F SqrtH=F CThrHd= 10.0 CDAdj=  3.0
 RMS Error=  0.7012560214D-04 NUsed= 2 OKEnD=F EnDIS=F
 InvSVX:  RCond= 8.11D-08 Info=           0 Equed=N FErr=  1.63D-15 BErr=  0.00D+00
 DIIS inversion failure, remove point   2.
 Use linear search instead of GDIIS.
 RFO step:  Lambda= 0.00000000D+00 EMin= 2.30000000D-03
 Quartic linear search produced a step of  0.27035.
 Iteration  1 RMS(Cart)=  0.00005341 RMS(Int)=  0.00000000
 Iteration  2 RMS(Cart)=  0.00000000 RMS(Int)=  0.00000000
 ITry= 1 IFail=0 DXMaxC= 8.21D-05 DCOld= 1.00D+10 DXMaxT= 3.00D-01 DXLimC= 3.00D+00 Rises=F
 ClnCor:  largest displacement from symmetrization is 6.43D-11 for atom     2.
 Variable       Old X    -DE/DX   Delta X   Delta X   Delta X     New X
                                 (Linear)    (Quad)   (Total)
    R1        2.22320  -0.00003  -0.00003  -0.00001  -0.00004   2.22316
    R2        2.06456   0.00001   0.00007  -0.00002   0.00004   2.06461
    R3        2.06456   0.00001   0.00007  -0.00002   0.00004   2.06461
    A1        2.12913   0.00001   0.00005   0.00002   0.00007   2.12920
    A2        2.12913   0.00001   0.00005   0.00002   0.00007   2.12920
    A3        2.02492  -0.00002  -0.00010  -0.00004  -0.00014   2.02478
    D1        3.14159   0.00000   0.00000   0.00000   0.00000   3.14159
         Item               Value     Threshold  Converged?
 Maximum Force            0.000028     0.000002     NO 
 RMS     Force            0.000015     0.000001     NO 
 Maximum Displacement     0.000082     0.000006     NO 
 RMS     Displacement     0.000053     0.000004     NO 
 Predicted change in Energy=-2.876522D-09
 Lowest energy point so far.  Saving SCF results.
 GradGradGradGradGradGradGradGradGradGradGradGradGradGradGradGradGradGrad

 Leave Link  103 at Tue Jul  9 10:56:41 2024, MaxMem=    97648640 cpu:               0.2 elap:               0.0
 (Enter /cluster/software/Gaussian/g16_B.01/l202.exe)
                          Input orientation:                          
 ---------------------------------------------------------------------
 Center     Atomic      Atomic             Coordinates (Angstroms)
 Number     Number       Type             X           Y           Z
 ---------------------------------------------------------------------
      1          8           0        0.000000   -0.000000    0.008205
      2          6           0       -0.000000    0.000000    1.184653
      3          1           0        0.926587    0.000000    1.763519
      4          1           0       -0.926587   -0.000000    1.763519
 ---------------------------------------------------------------------
                    Distance matrix (angstroms):
                    1          2          3          4
     1  O    0.000000
     2  C    1.176448   0.000000
     3  H    1.984865   1.092542   0.000000
     4  H    1.984865   1.092542   1.853174   0.000000
 Stoichiometry    CH2O
 Framework group  C2V[C2(CO),SGV(H2)]
 Deg. of freedom     3
 Full point group                 C2V     NOp   4
 RotChk:  IX=0 Diff= 1.21D-15
 Largest Abelian subgroup         C2V     NOp   4
 Largest concise Abelian subgroup C2      NOp   2
                         Standard orientation:                         
 ---------------------------------------------------------------------
 Center     Atomic      Atomic             Coordinates (Angstroms)
 Number     Number       Type             X           Y           Z
 ---------------------------------------------------------------------
      1          8           0        0.000000   -0.000000    0.660582
      2          6           0       -0.000000    0.000000   -0.515866
      3          1           0       -0.000000    0.926587   -1.094731
      4          1           0       -0.000000   -0.926587   -1.094731
 ---------------------------------------------------------------------
 Rotational constants (GHZ):         292.0315345          40.6515901          35.6842454
 Leave Link  202 at Tue Jul  9 10:56:41 2024, MaxMem=    97648640 cpu:               0.1 elap:               0.0
 (Enter /cluster/software/Gaussian/g16_B.01/l301.exe)
 Standard basis: CC-pVQZ (5D, 7F)
 Ernie: Thresh=  0.10000D-02 Tol=  0.10000D-05 Strict=F.
 Ernie:  6 primitive shells out of 90 were deleted.
 There are    84 symmetry adapted cartesian basis functions of A1  symmetry.
 There are    27 symmetry adapted cartesian basis functions of A2  symmetry.
 There are    43 symmetry adapted cartesian basis functions of B1  symmetry.
 There are    56 symmetry adapted cartesian basis functions of B2  symmetry.
 There are    64 symmetry adapted basis functions of A1  symmetry.
 There are    24 symmetry adapted basis functions of A2  symmetry.
 There are    36 symmetry adapted basis functions of B1  symmetry.
 There are    46 symmetry adapted basis functions of B2  symmetry.
   170 basis functions,   252 primitive gaussians,   210 cartesian basis functions
     8 alpha electrons        8 beta electrons
       nuclear repulsion energy        31.9543438652 Hartrees.
 IExCor=    0 DFT=F Ex=HF Corr=None ExCW=0 ScaHFX=  1.000000
 ScaDFX=  1.000000  1.000000  1.000000  1.000000 ScalE2=  1.000000  1.000000
 IRadAn=      5 IRanWt=     -1 IRanGd=            0 ICorTp=0 IEmpDi=  4
 NAtoms=    4 NActive=    4 NUniq=    3 SFac= 1.78D+00 NAtFMM=   60 NAOKFM=F Big=F
 Integral buffers will be    131072 words long.
 Raffenetti 1 integral format.
 Two-electron integral symmetry is turned on.
 Leave Link  301 at Tue Jul  9 10:56:41 2024, MaxMem=    97648640 cpu:               0.7 elap:               0.1
 (Enter /cluster/software/Gaussian/g16_B.01/l302.exe)
 NPDir=0 NMtPBC=     1 NCelOv=     1 NCel=       1 NClECP=     1 NCelD=      1
         NCelK=      1 NCelE2=     1 NClLst=     1 CellRange=     0.0.
 One-electron integrals computed using PRISM.
 One-electron integral symmetry used in STVInt
 PrsmSu:  requested number of processors reduced to:   4 ShMem   1 Linda.
 NBasis=   170 RedAO= T EigKep=  2.32D-04  NBF=    64    24    36    46
 NBsUse=   170 1.00D-06 EigRej= -1.00D+00 NBFU=    64    24    36    46
 Leave Link  302 at Tue Jul  9 10:56:41 2024, MaxMem=    97648640 cpu:               2.2 elap:               0.2
 (Enter /cluster/software/Gaussian/g16_B.01/l303.exe)
 DipDrv:  MaxL=1.
 Leave Link  303 at Tue Jul  9 10:56:41 2024, MaxMem=    97648640 cpu:               0.4 elap:               0.1
 (Enter /cluster/software/Gaussian/g16_B.01/l401.exe)
 Initial guess from the checkpoint file:  "inputFull_3q.chk"
 B after Tr=     0.000000   -0.000000   -0.000000
         Rot=    1.000000    0.000000   -0.000000    0.000000 Ang=   0.00 deg.
 Guess basis will be translated and rotated to current coordinates.
 JPrj=2 DoOrth=T DoCkMO=T.
 Initial guess orbital symmetries:
       Occupied  (A1) (A1) (A1) (A1) (B2) (A1) (B1) (B2)
       Virtual   (B1) (A1) (B2) (A1) (B1) (A1) (B2) (A1) (A1) (A2)
                 (B2) (A1) (B1) (B2) (B1) (A1) (B2) (A2) (B1) (A1)
                 (B2) (A1) (B2) (A1) (A1) (A1) (A1) (B1) (A2) (B2)
                 (B1) (A1) (B2) (B2) (A2) (A1) (A1) (B1) (B1) (B2)
                 (A2) (A1) (B2) (A1) (A2) (B1) (B2) (B1) (A1) (A1)
                 (B2) (A1) (A2) (B2) (B1) (B1) (A1) (B2) (B1) (A1)
                 (B2) (A2) (A1) (B2) (B2) (A1) (B1) (A1) (A1) (B2)
                 (A2) (B1) (A2) (A1) (B1) (A1) (A1) (B2) (A1) (B2)
                 (A1) (B2) (B1) (A2) (A2) (B1) (A1) (B1) (A2) (B2)
                 (B2) (A1) (B2) (B1) (A2) (B2) (B1) (A1) (A1) (B2)
                 (A1) (B1) (A1) (A2) (B2) (B1) (A1) (A1) (B1) (B2)
                 (A2) (A2) (A1) (B1) (B2) (A1) (B2) (A1) (A1) (B1)
                 (B2) (A2) (A2) (B1) (A1) (B2) (A1) (A2) (B2) (A1)
                 (B1) (B2) (A1) (A2) (B1) (A1) (B2) (A1) (B1) (B2)
                 (A2) (B1) (B2) (B2) (A1) (B1) (A1) (B2) (A1) (A2)
                 (A1) (B1) (B2) (A2) (A1) (B2) (A1) (B1) (B2) (A1)
                 (A1) (A1)
 The electronic state of the initial guess is 1-A1.
 Leave Link  401 at Tue Jul  9 10:56:41 2024, MaxMem=    97648640 cpu:               1.9 elap:               0.1
 (Enter /cluster/software/Gaussian/g16_B.01/l502.exe)
 Integral symmetry usage will be decided dynamically.
 Closed shell SCF:
 Using DIIS extrapolation, IDIIS=  1040.
 NGot=    97648640 LenX=    97554016 LenY=    97509475
 Requested convergence on RMS density matrix=1.00D-08 within 128 cycles.
 Requested convergence on MAX density matrix=1.00D-06.
 Requested convergence on             energy=1.00D-06.
 No special actions if energy rises.
 Fock matrices will be formed incrementally for  20 cycles.

 Cycle   1  Pass 1  IDiag  1:
 FoFJK:  IHMeth= 1 ICntrl=       0 DoSepK=F KAlg= 0 I1Cent=           0 FoldK=F
 IRaf= 990000000 NMat=       1 IRICut=       1 DoRegI=T DoRafI=F ISym2E= 1 IDoP0=0 IntGTp=1.
 FoFCou: FMM=F IPFlag=           0 FMFlag=      100000 FMFlg1=           0
         NFxFlg=           0 DoJE=F BraDBF=F KetDBF=F FulRan=T
         wScrn=  0.000000 ICntrl=         0 IOpCl=  0 I1Cent=           0 NGrid=           0
         NMat0=    1 NMatS0=      1 NMatT0=    0 NMatD0=    1 NMtDS0=    0 NMtDT0=    0
 Petite list used in FoFCou.
 E= -113.922382478591    
 DIIS: error= 3.95D-06 at cycle   1 NSaved=   1.
 NSaved= 1 IEnMin= 1 EnMin= -113.922382478591     IErMin= 1 ErrMin= 3.95D-06
 ErrMax= 3.95D-06  0.00D+00 EMaxC= 1.00D-01 BMatC= 1.44D-09 BMatP= 1.44D-09
 IDIUse=1 WtCom= 1.00D+00 WtEn= 0.00D+00
 Coeff-Com:  0.100D+01
 Coeff:      0.100D+01
 Gap=     0.556 Goal=   None    Shift=    0.000
 RMSDP=1.43D-07 MaxDP=3.69D-06              OVMax= 1.46D-05

 Cycle   2  Pass 1  IDiag  1:
 RMSU=  1.43D-07    CP:  1.00D+00
 E= -113.922382479742     Delta-E=       -0.000000001151 Rises=F Damp=F
 DIIS: error= 1.82D-06 at cycle   2 NSaved=   2.
 NSaved= 2 IEnMin= 2 EnMin= -113.922382479742     IErMin= 2 ErrMin= 1.82D-06
 ErrMax= 1.82D-06  0.00D+00 EMaxC= 1.00D-01 BMatC= 2.25D-10 BMatP= 1.44D-09
 IDIUse=1 WtCom= 1.00D+00 WtEn= 0.00D+00
 Coeff-Com:  0.143D+00 0.857D+00
 Coeff:      0.143D+00 0.857D+00
 Gap=     0.556 Goal=   None    Shift=    0.000
 RMSDP=7.01D-08 MaxDP=1.84D-06 DE=-1.15D-09 OVMax= 5.43D-06

 Cycle   3  Pass 1  IDiag  1:
 RMSU=  6.90D-08    CP:  1.00D+00  1.08D+00
 E= -113.922382479896     Delta-E=       -0.000000000154 Rises=F Damp=F
 DIIS: error= 7.10D-07 at cycle   3 NSaved=   3.
 NSaved= 3 IEnMin= 3 EnMin= -113.922382479896     IErMin= 3 ErrMin= 7.10D-07
 ErrMax= 7.10D-07  0.00D+00 EMaxC= 1.00D-01 BMatC= 5.39D-11 BMatP= 2.25D-10
 IDIUse=1 WtCom= 1.00D+00 WtEn= 0.00D+00
 Coeff-Com: -0.795D-01 0.286D+00 0.794D+00
 Coeff:     -0.795D-01 0.286D+00 0.794D+00
 Gap=     0.556 Goal=   None    Shift=    0.000
 RMSDP=2.28D-08 MaxDP=7.00D-07 DE=-1.54D-10 OVMax= 2.52D-06

 Cycle   4  Pass 1  IDiag  1:
 RMSU=  1.41D-08    CP:  1.00D+00  1.20D+00  9.19D-01
 E= -113.922382479943     Delta-E=       -0.000000000048 Rises=F Damp=F
 DIIS: error= 2.08D-07 at cycle   4 NSaved=   4.
 NSaved= 4 IEnMin= 4 EnMin= -113.922382479943     IErMin= 4 ErrMin= 2.08D-07
 ErrMax= 2.08D-07  0.00D+00 EMaxC= 1.00D-01 BMatC= 1.22D-12 BMatP= 5.39D-11
 IDIUse=1 WtCom= 1.00D+00 WtEn= 0.00D+00
 Coeff-Com:  0.739D-03-0.802D-01-0.647D-01 0.114D+01
 Coeff:      0.739D-03-0.802D-01-0.647D-01 0.114D+01
 Gap=     0.556 Goal=   None    Shift=    0.000
 RMSDP=8.62D-09 MaxDP=2.26D-07 DE=-4.75D-11 OVMax= 1.05D-06

 SCF Done:  E(RHF) =  -113.922382480     A.U. after    4 cycles
            NFock=  4  Conv=0.86D-08     -V/T= 2.0000
 KE= 1.139209151457D+02 PE=-3.325786563207D+02 EE= 7.278101482997D+01
 Leave Link  502 at Tue Jul  9 10:56:44 2024, MaxMem=    97648640 cpu:              43.4 elap:               2.7
 (Enter /cluster/software/Gaussian/g16_B.01/l701.exe)
 ... and contract with generalized density number  0.
 Compute integral first derivatives.
 PrsmSu:  requested number of processors reduced to:   2 ShMem   1 Linda.
 PrsmSu:  requested number of processors reduced to:  10 ShMem   1 Linda.
 Leave Link  701 at Tue Jul  9 10:56:44 2024, MaxMem=    97648640 cpu:               1.5 elap:               0.2
 (Enter /cluster/software/Gaussian/g16_B.01/l702.exe)
 L702 exits ... SP integral derivatives will be done elsewhere.
 Leave Link  702 at Tue Jul  9 10:56:44 2024, MaxMem=    97648640 cpu:               0.3 elap:               0.0
 (Enter /cluster/software/Gaussian/g16_B.01/l703.exe)
 Integral derivatives from FoFJK, PRISM(SPDF).
 Compute integral first derivatives, UseDBF=F ICtDFT=           0.
 Calling FoFJK, ICntrl=      2127 FMM=F ISym2X=1 I1Cent= 0 IOpClX= 0 NMat=1 NMatS=1 NMatT=0.
 FoFJK:  IHMeth= 1 ICntrl=    2127 DoSepK=F KAlg= 0 I1Cent=           0 FoldK=F
 IRaf=         0 NMat=       1 IRICut=       1 DoRegI=T DoRafI=F ISym2E= 1 IDoP0=0 IntGTp=1.
 FoFCou: FMM=F IPFlag=           0 FMFlag=      100000 FMFlg1=         800
         NFxFlg=           0 DoJE=F BraDBF=F KetDBF=F FulRan=T
         wScrn=  0.000000 ICntrl=      2127 IOpCl=  0 I1Cent=           0 NGrid=           0
         NMat0=    1 NMatS0=      1 NMatT0=    0 NMatD0=    1 NMtDS0=    0 NMtDT0=    0
 Petite list used in FoFCou.
 CoulSu:  requested number of processors reduced to:  10 ShMem   1 Linda.
 Leave Link  703 at Tue Jul  9 10:56:47 2024, MaxMem=    97648640 cpu:              28.1 elap:               2.7
 (Enter /cluster/software/Gaussian/g16_B.01/l716.exe)
 Dipole        = 2.21418383D-18 6.66133815D-16-1.05521119D+00
 ***** Axes restored to original set *****
 -------------------------------------------------------------------
 Center     Atomic                   Forces (Hartrees/Bohr)
 Number     Number              X              Y              Z
 -------------------------------------------------------------------
      1        8          -0.000000000   -0.000000000    0.000000012
      2        6          -0.000000000   -0.000000000    0.000000077
      3        1           0.000000043    0.000000000   -0.000000044
      4        1          -0.000000043    0.000000000   -0.000000044
 -------------------------------------------------------------------
 Cartesian Forces:  Max     0.000000077 RMS     0.000000034
 Leave Link  716 at Tue Jul  9 10:56:47 2024, MaxMem=    97648640 cpu:               0.3 elap:               0.0
 (Enter /cluster/software/Gaussian/g16_B.01/l103.exe)

 GradGradGradGradGradGradGradGradGradGradGradGradGradGradGradGradGradGrad
 Berny optimization.
 Using GEDIIS/GDIIS optimizer.
 FormGI is forming the generalized inverse of G from B-inverse, IUseBI=4.
 Internal  Forces:  Max     0.000000083 RMS     0.000000039
 Search for a local minimum.
 Step number   4 out of a maximum of   20
 All quantities printed in internal units (Hartrees-Bohrs-Radians)
 RMS Force = .39414D-07 SwitMx=.10000D-02 MixMth= 2
 Mixed Optimization -- En-DIIS/RFO-DIIS
 Swapping is turned off.
 Update second derivatives using D2CorX and points    1    2    3    4
 DE= -2.88D-09 DEPred=-2.88D-09 R= 1.00D+00
 Trust test= 1.00D+00 RLast= 1.86D-04 DXMaxT set to 3.00D-01
 The second derivative matrix:
                          R1        R2        R3        A1        A2
           R1           1.05905
           R2           0.03997   0.34675
           R3           0.03997   0.00202   0.34675
           A1           0.02083  -0.00424  -0.00424   0.15721
           A2           0.02083  -0.00424  -0.00424  -0.00279   0.15721
           A3          -0.04166   0.00848   0.00848   0.00558   0.00558
           D1          -0.00000   0.00000   0.00000   0.00000   0.00000
                          A3        D1
           A3           0.14885
           D1          -0.00000   0.00230
 ITU=  0  0  1  0
     Eigenvalues ---    0.00230   0.13890   0.16000   0.34473   0.34598
     Eigenvalues ---    1.06620
 En-DIIS/RFO-DIIS/Sim-DIIS IScMMF=       -3 using points:     4    3    2
 RFO step:  Lambda=-5.49281967D-14.
 NNeg= 0 NGDIIS= 3 SimSw=  2.50D-01 Rises=F DC= -2.88D-09 SmlDif=  1.00D-05
 NRisDI= 0 DoIntr=F SqrtH=F CThrHd= 10.0 CDAdj=  3.0
 RMS Error=  0.2716034877D-06 NUsed= 3 OKEnD=F EnDIS=F
 InvSVX:  RCond= 3.23D-10 Info=           0 Equed=N FErr=  1.39D-15 BErr=  8.68D-17
 DIIS inversion failure, remove point   3.
 InvSVX:  RCond= 3.88D-08 Info=           0 Equed=N FErr=  8.91D-16 BErr=  0.00D+00
 DIIS inversion failure, remove point   2.
 Use linear search instead of GDIIS.
 RFO step:  Lambda= 0.00000000D+00 EMin= 2.30000000D-03
 Quartic linear search produced a step of -0.00275.
 Iteration  1 RMS(Cart)=  0.00000026 RMS(Int)=  0.00000000
 ITry= 1 IFail=0 DXMaxC= 3.31D-07 DCOld= 1.00D+10 DXMaxT= 3.00D-01 DXLimC= 3.00D+00 Rises=F
 ClnCor:  largest displacement from symmetrization is 1.09D-13 for atom     2.
 Variable       Old X    -DE/DX   Delta X   Delta X   Delta X     New X
                                 (Linear)    (Quad)   (Total)
    R1        2.22316  -0.00000   0.00000  -0.00000   0.00000   2.22316
    R2        2.06461   0.00000  -0.00000   0.00000   0.00000   2.06461
    R3        2.06461   0.00000  -0.00000   0.00000   0.00000   2.06461
    A1        2.12920  -0.00000  -0.00000  -0.00000  -0.00000   2.12920
    A2        2.12920  -0.00000  -0.00000  -0.00000  -0.00000   2.12920
    A3        2.02478   0.00000   0.00000   0.00000   0.00000   2.02478
    D1        3.14159   0.00000   0.00000   0.00000   0.00000   3.14159
         Item               Value     Threshold  Converged?
 Maximum Force            0.000000     0.000002     YES
 RMS     Force            0.000000     0.000001     YES
 Maximum Displacement     0.000000     0.000006     YES
 RMS     Displacement     0.000000     0.000004     YES
 Predicted change in Energy=-3.665328D-14
 Optimization completed.
    -- Stationary point found.
                           ----------------------------
                           !   Optimized Parameters   !
                           ! (Angstroms and Degrees)  !
 --------------------------                            --------------------------
 ! Name  Definition              Value          Derivative Info.                !
 --------------------------------------------------------------------------------
 ! R1    R(1,2)                  1.1764         -DE/DX =    0.0                 !
 ! R2    R(2,3)                  1.0925         -DE/DX =    0.0                 !
 ! R3    R(2,4)                  1.0925         -DE/DX =    0.0                 !
 ! A1    A(1,2,3)              121.9942         -DE/DX =    0.0                 !
 ! A2    A(1,2,4)              121.9942         -DE/DX =    0.0                 !
 ! A3    A(3,2,4)              116.0116         -DE/DX =    0.0                 !
 ! D1    D(1,2,4,3)            180.0            -DE/DX =    0.0                 !
 --------------------------------------------------------------------------------
 Lowest energy point so far.  Saving SCF results.
 Largest change from initial coordinates is atom    3       0.001 Angstoms.
 GradGradGradGradGradGradGradGradGradGradGradGradGradGradGradGradGradGrad

 Leave Link  103 at Tue Jul  9 10:56:47 2024, MaxMem=    97648640 cpu:               0.2 elap:               0.0
 (Enter /cluster/software/Gaussian/g16_B.01/l202.exe)
                          Input orientation:                          
 ---------------------------------------------------------------------
 Center     Atomic      Atomic             Coordinates (Angstroms)
 Number     Number       Type             X           Y           Z
 ---------------------------------------------------------------------
      1          8           0        0.000000   -0.000000    0.008205
      2          6           0       -0.000000    0.000000    1.184653
      3          1           0        0.926587    0.000000    1.763519
      4          1           0       -0.926587   -0.000000    1.763519
 ---------------------------------------------------------------------
                    Distance matrix (angstroms):
                    1          2          3          4
     1  O    0.000000
     2  C    1.176448   0.000000
     3  H    1.984865   1.092542   0.000000
     4  H    1.984865   1.092542   1.853174   0.000000
 Stoichiometry    CH2O
 Framework group  C2V[C2(CO),SGV(H2)]
 Deg. of freedom     3
 Full point group                 C2V     NOp   4
 RotChk:  IX=0 Diff= 5.53D-16
 Largest Abelian subgroup         C2V     NOp   4
 Largest concise Abelian subgroup C2      NOp   2
                         Standard orientation:                         
 ---------------------------------------------------------------------
 Center     Atomic      Atomic             Coordinates (Angstroms)
 Number     Number       Type             X           Y           Z
 ---------------------------------------------------------------------
      1          8           0        0.000000    0.000000    0.660582
      2          6           0       -0.000000    0.000000   -0.515866
      3          1           0       -0.000000    0.926587   -1.094731
      4          1           0       -0.000000   -0.926587   -1.094731
 ---------------------------------------------------------------------
 Rotational constants (GHZ):         292.0315345          40.6515901          35.6842454
 Leave Link  202 at Tue Jul  9 10:56:47 2024, MaxMem=    97648640 cpu:               0.1 elap:               0.0
 (Enter /cluster/software/Gaussian/g16_B.01/l601.exe)
 Copying SCF densities to generalized density rwf, IOpCl= 0 IROHF=0.

 **********************************************************************

            Population analysis using the SCF Density.

 **********************************************************************

 Orbital symmetries:
       Occupied  (A1) (A1) (A1) (A1) (B2) (A1) (B1) (B2)
       Virtual   (B1) (A1) (B2) (A1) (B1) (A1) (B2) (A1) (A1) (A2)
                 (B2) (A1) (B1) (B2) (B1) (A1) (B2) (A2) (B1) (A1)
                 (B2) (A1) (B2) (A1) (A1) (A1) (A1) (B1) (A2) (B2)
                 (B1) (A1) (B2) (B2) (A2) (A1) (A1) (B1) (B1) (B2)
                 (A2) (A1) (B2) (A1) (A2) (B1) (B2) (B1) (A1) (A1)
                 (B2) (A1) (A2) (B2) (B1) (B1) (A1) (B2) (B1) (A1)
                 (B2) (A2) (A1) (B2) (B2) (A1) (B1) (A1) (A1) (B2)
                 (A2) (B1) (A2) (A1) (B1) (A1) (A1) (B2) (A1) (B2)
                 (A1) (B2) (B1) (A2) (A2) (B1) (A1) (B1) (A2) (B2)
                 (B2) (A1) (B2) (B1) (A2) (B2) (B1) (A1) (A1) (B2)
                 (A1) (B1) (A1) (A2) (B2) (B1) (A1) (A1) (B1) (B2)
                 (A2) (A2) (A1) (B1) (B2) (A1) (B2) (A1) (A1) (B1)
                 (B2) (A2) (A2) (B1) (A1) (B2) (A1) (A2) (B2) (A1)
                 (B1) (B2) (A1) (A2) (B1) (A1) (B2) (A1) (B1) (B2)
                 (A2) (B1) (B2) (B2) (A1) (B1) (A1) (B2) (A1) (A2)
                 (A1) (B1) (B2) (A2) (A1) (B2) (A1) (B1) (B2) (A1)
                 (A1) (A1)
 The electronic state is 1-A1.
 Alpha  occ. eigenvalues --  -20.57225 -11.33173  -1.42421  -0.86842  -0.70272
 Alpha  occ. eigenvalues --   -0.65996  -0.54896  -0.43962
 Alpha virt. eigenvalues --    0.11675   0.12254   0.17619   0.21810   0.33659
 Alpha virt. eigenvalues --    0.34455   0.34506   0.46804   0.47939   0.54093
 Alpha virt. eigenvalues --    0.54367   0.62955   0.65271   0.67606   0.74497
 Alpha virt. eigenvalues --    0.74995   0.81711   0.87010   0.90426   0.95848
 Alpha virt. eigenvalues --    1.02607   1.07916   1.12122   1.14180   1.21814
 Alpha virt. eigenvalues --    1.33986   1.46423   1.47109   1.50882   1.54555
 Alpha virt. eigenvalues --    1.63119   1.63184   1.73481   1.78683   1.87723
 Alpha virt. eigenvalues --    1.92413   2.02338   2.04145   2.04848   2.07392
 Alpha virt. eigenvalues --    2.10714   2.13876   2.28999   2.36614   2.37907
 Alpha virt. eigenvalues --    2.38024   2.48062   2.58158   2.61869   2.66603
 Alpha virt. eigenvalues --    2.66618   2.78947   2.81345   2.87623   2.90702
 Alpha virt. eigenvalues --    3.09753   3.10070   3.20082   3.22006   3.42788
 Alpha virt. eigenvalues --    3.48831   3.58092   3.62583   3.67687   3.70659
 Alpha virt. eigenvalues --    3.72497   3.75012   3.89487   4.05016   4.05862
 Alpha virt. eigenvalues --    4.13194   4.33364   4.38214   4.39992   4.58159
 Alpha virt. eigenvalues --    4.61769   4.70784   4.73176   5.05651   5.07229
 Alpha virt. eigenvalues --    5.38052   5.42105   5.51060   5.53828   5.67917
 Alpha virt. eigenvalues --    5.72653   5.84259   6.01740   6.03792   6.10888
 Alpha virt. eigenvalues --    6.20322   6.26310   6.26855   6.28022   6.34210
 Alpha virt. eigenvalues --    6.36712   6.41167   6.49732   6.63424   6.74734
 Alpha virt. eigenvalues --    6.76453   6.78617   6.92702   7.01869   7.22498
 Alpha virt. eigenvalues --    7.47471   7.58711   7.71664   7.71724   7.75167
 Alpha virt. eigenvalues --    7.81756   7.85069   7.87315   7.96875   8.04586
 Alpha virt. eigenvalues --    8.06865   8.28152   8.29954   8.46843   8.50222
 Alpha virt. eigenvalues --    8.53865   8.59278   8.77035   8.87573   8.89699
 Alpha virt. eigenvalues --    8.98280   9.29852   9.35281   9.37696   9.45138
 Alpha virt. eigenvalues --    9.59884   9.67139   9.93362  10.16252  10.27406
 Alpha virt. eigenvalues --   10.29996  10.36802  10.57294  10.63446  10.72700
 Alpha virt. eigenvalues --   10.74888  10.95049  11.12207  11.26019  11.42203
 Alpha virt. eigenvalues --   11.59862  11.61557  11.62204  11.84632  11.99978
 Alpha virt. eigenvalues --   12.23603  12.37545  12.59620  12.76615  12.91904
 Alpha virt. eigenvalues --   12.99073  13.37317  13.93088  14.47283  14.68506
 Alpha virt. eigenvalues --   25.94903  42.81377
          Condensed to atoms (all electrons):
               1          2          3          4
     1  O    7.842617   0.684753  -0.080914  -0.080914
     2  C    0.684753   4.198726   0.394111   0.394111
     3  H   -0.080914   0.394111   0.817331  -0.149149
     4  H   -0.080914   0.394111  -0.149149   0.817331
 Mulliken charges:
               1
     1  O   -0.365541
     2  C    0.328298
     3  H    0.018622
     4  H    0.018622
 Sum of Mulliken charges =  -0.00000
 Mulliken charges with hydrogens summed into heavy atoms:
               1
     1  O   -0.365541
     2  C    0.365541
 Electronic spatial extent (au):  <R**2>=             58.9475
 Charge=              0.0000 electrons
 Dipole moment (field-independent basis, Debye):
    X=              0.0000    Y=              0.0000    Z=             -2.6821  Tot=              2.6821
 Quadrupole moment (field-independent basis, Debye-Ang):
   XX=            -11.5950   YY=            -11.4103   ZZ=            -12.0836
   XY=              0.0000   XZ=              0.0000   YZ=              0.0000
 Traceless Quadrupole moment (field-independent basis, Debye-Ang):
   XX=              0.1013   YY=              0.2860   ZZ=             -0.3873
   XY=              0.0000   XZ=              0.0000   YZ=              0.0000
 Octapole moment (field-independent basis, Debye-Ang**2):
  XXX=              0.0000  YYY=             -0.0000  ZZZ=              0.2372  XYY=              0.0000
  XXY=              0.0000  XXZ=              0.4549  XZZ=              0.0000  YZZ=              0.0000
  YYZ=             -0.5958  XYZ=             -0.0000
 Hexadecapole moment (field-independent basis, Debye-Ang**3):
 XXXX=            -10.0955 YYYY=            -17.3096 ZZZZ=            -43.4322 XXXY=             -0.0000
 XXXZ=             -0.0000 YYYX=             -0.0000 YYYZ=              0.0000 ZZZX=             -0.0000
 ZZZY=              0.0000 XXYY=             -4.9162 XXZZ=             -8.8513 YYZZ=             -9.6967
 XXYZ=             -0.0000 YYXZ=             -0.0000 ZZXY=             -0.0000
 N-N= 3.195434386517D+01 E-N=-3.325786558186D+02  KE= 1.139209151457D+02
 Symmetry A1   KE= 1.036845440518D+02
 Symmetry A2   KE= 2.401448151504D-21
 Symmetry B1   KE= 3.514066090541D+00
 Symmetry B2   KE= 6.722305003268D+00
 No NMR shielding tensors so no spin-rotation constants.
 Leave Link  601 at Tue Jul  9 10:56:47 2024, MaxMem=    97648640 cpu:               2.9 elap:               0.2
 (Enter /cluster/software/Gaussian/g16_B.01/l9999.exe)
 1\1\GINC-C64-2\FOpt\RHF\CC-pVQZ\C1H2O1\VLE014\09-Jul-2024\0\\#P HF/cc-
 pVQZ Opt=VeryTight Int=UltraFine SCF=VeryTight\\Title\\0,1\O,0.,0.,0.0
 082049854\C,0.,0.,1.1846529243\H,0.9265868985,0.,1.7635185451\H,-0.926
 5868985,0.,1.7635185451\\Version=ES64L-G16RevB.01\State=1-A1\HF=-113.9
 223825\RMSD=8.624e-09\RMSF=3.386e-08\Dipole=0.,0.,1.0552112\Quadrupole
 =0.2126258,0.0753304,-0.2879562,0.,0.,0.\PG=C02V [C2(C1O1),SGV(H2)]\\@


 THE MORE ACCURATE THE CALCULATIONS BECOME, THE MORE THE CONCEPTS
 TEND TO VANISH INTO THIN AIR.
     -- R.S. MULLIKEN, J.C.P. 43,S2(1965)
 Job cpu time:       0 days  0 hours  7 minutes 57.1 seconds.
 Elapsed time:       0 days  0 hours  0 minutes 37.6 seconds.
 File lengths (MBytes):  RWF=     20 Int=      0 D2E=      0 Chk=      3 Scr=      1
 Normal termination of Gaussian 16 at Tue Jul  9 10:56:48 2024.
 Initial command:
 /cluster/software/Gaussian/g16_B.01/l1.exe "/cluster/work/users/vle014/5834675/Gau-3383209.inp" -scrdir="/cluster/work/users/vle014/5834675/"
 Entering Link 1 = /cluster/software/Gaussian/g16_B.01/l1.exe PID=   3383977.
  
 Copyright (c) 1988-2017, Gaussian, Inc.  All Rights Reserved.
  
 This is part of the Gaussian(R) 16 program.  It is based on
 the Gaussian(R) 09 system (copyright 2009, Gaussian, Inc.),
 the Gaussian(R) 03 system (copyright 2003, Gaussian, Inc.),
 the Gaussian(R) 98 system (copyright 1998, Gaussian, Inc.),
 the Gaussian(R) 94 system (copyright 1995, Gaussian, Inc.),
 the Gaussian 92(TM) system (copyright 1992, Gaussian, Inc.),
 the Gaussian 90(TM) system (copyright 1990, Gaussian, Inc.),
 the Gaussian 88(TM) system (copyright 1988, Gaussian, Inc.),
 the Gaussian 86(TM) system (copyright 1986, Carnegie Mellon
 University), and the Gaussian 82(TM) system (copyright 1983,
 Carnegie Mellon University). Gaussian is a federally registered
 trademark of Gaussian, Inc.
  
 This software contains proprietary and confidential information,
 including trade secrets, belonging to Gaussian, Inc.
  
 This software is provided under written license and may be
 used, copied, transmitted, or stored only in accord with that
 written license.
  
 The following legend is applicable only to US Government
 contracts under FAR:
  
                    RESTRICTED RIGHTS LEGEND
  
 Use, reproduction and disclosure by the US Government is
 subject to restrictions as set forth in subparagraphs (a)
 and (c) of the Commercial Computer Software - Restricted
 Rights clause in FAR 52.227-19.
  
 Gaussian, Inc.
 340 Quinnipiac St., Bldg. 40, Wallingford CT 06492
  
  
 ---------------------------------------------------------------
 Warning -- This program may not be used in any manner that
 competes with the business of Gaussian, Inc. or will provide
 assistance to any competitor of Gaussian, Inc.  The licensee
 of this program is prohibited from giving any competitor of
 Gaussian, Inc. access to this program.  By using this program,
 the user acknowledges that Gaussian, Inc. is engaged in the
 business of creating and licensing software in the field of
 computational chemistry and represents and warrants to the
 licensee that it is not a competitor of Gaussian, Inc. and that
 it will not use this program in any manner prohibited above.
 ---------------------------------------------------------------
  

 Cite this work as:
 Gaussian 16, Revision B.01,
 M. J. Frisch, G. W. Trucks, H. B. Schlegel, G. E. Scuseria, 
 M. A. Robb, J. R. Cheeseman, G. Scalmani, V. Barone, 
 G. A. Petersson, H. Nakatsuji, X. Li, M. Caricato, A. V. Marenich, 
 J. Bloino, B. G. Janesko, R. Gomperts, B. Mennucci, H. P. Hratchian, 
 J. V. Ortiz, A. F. Izmaylov, J. L. Sonnenberg, D. Williams-Young, 
 F. Ding, F. Lipparini, F. Egidi, J. Goings, B. Peng, A. Petrone, 
 T. Henderson, D. Ranasinghe, V. G. Zakrzewski, J. Gao, N. Rega, 
 G. Zheng, W. Liang, M. Hada, M. Ehara, K. Toyota, R. Fukuda, 
 J. Hasegawa, M. Ishida, T. Nakajima, Y. Honda, O. Kitao, H. Nakai, 
 T. Vreven, K. Throssell, J. A. Montgomery, Jr., J. E. Peralta, 
 F. Ogliaro, M. J. Bearpark, J. J. Heyd, E. N. Brothers, K. N. Kudin, 
 V. N. Staroverov, T. A. Keith, R. Kobayashi, J. Normand, 
 K. Raghavachari, A. P. Rendell, J. C. Burant, S. S. Iyengar, 
 J. Tomasi, M. Cossi, J. M. Millam, M. Klene, C. Adamo, R. Cammi, 
 J. W. Ochterski, R. L. Martin, K. Morokuma, O. Farkas, 
 J. B. Foresman, and D. J. Fox, Gaussian, Inc., Wallingford CT, 2016.
 
 ******************************************
 Gaussian 16:  ES64L-G16RevB.01 20-Dec-2017
                 9-Jul-2024 
 ******************************************
 %NProcShared=16
 Will use up to   16 processors via shared memory.
 %LindaWorkers=cib64-2:2
 %chk=inputFull_3q
 %mem=745MB
 SetLPE:    new flags="-opt 'Tsnet.Node.lindarsharg: ssh' -mp 2 -nodelist 'cib64-2' -opt 'Tsnet.cib64-2.speedfactor: 2' -env GAUSS_MDEF=97648640 -env GAUSS_EXEDIR="/cluster/software/Gaussian/g16_B.01""
 Will use up to    2 processors via Linda.
 ----------------------------------------------------------------------
 #P HF/cc-pVQZ Freq=(Anharmonic,raman,hpmodes,ReadAnharm) Int=UltraFine
  SCF=VeryTight iop(7/33=1) IOp(10/96=2) Guess=Read Geom=AllCheck
 ----------------------------------------------------------------------
 1/10=4,29=7,30=1,38=21,80=1/1,6,3;
 2/12=2,40=1/2;
 3/5=16,6=2,11=9,14=-4,25=1,30=1,71=2,75=-5,116=-2,140=1/1,2,3;
 4/5=1/1;
 5/5=2,17=3,38=6,98=1/2;
 8/6=4,10=90,11=11/1;
 10/13=10,15=4,60=-2,96=2/2;
 11/6=3,8=1,9=11,15=111,16=1/1,2,10;
 10/6=1,60=-2,96=2/2;
 6/7=2,8=2,9=2,10=2,28=1/1;
 7/8=10,10=1,25=1,33=1,71=2,72=1/1,2,3,16;
 1/38=20,80=1/6(3);
 7/8=11,25=202,33=1,44=-1,71=1,72=1,92=10/16,17;
 1/10=4,30=1,38=20,80=1/3;
 99//99;
 3/5=16,6=2,11=9,14=-2,25=1,30=1,71=2,75=-5,140=1/1,2,3;
 4/5=5,16=3,69=1/1;
 5/5=2,17=3,38=5,98=1/2;
 8/6=4,10=90,11=11/1;
 10/13=10,15=4,60=-2,96=2/2;
 11/6=3,8=1,9=11,15=111,16=1/1,2,10;
 10/6=1,60=-2,96=2/2;
 6/7=2,8=2,9=2,10=2,28=1/1;
 7/7=1,8=10,10=1,25=1,33=1,71=1,72=1/1,2,3,16;
 1/38=20,80=1/6(-9);
 7/8=11,25=202,33=1,44=-1,71=1,72=1,92=10/16,17;
 1/10=4,30=1,38=20,80=1/3;
 99//99;
 Leave Link    1 at Tue Jul  9 10:56:48 2024, MaxMem=    97648640 cpu:               0.8 elap:               0.1
 (Enter /cluster/software/Gaussian/g16_B.01/l101.exe)
 Structure from the checkpoint file:  "inputFull_3q.chk"
 -----
 Title
 -----
 Charge =  0 Multiplicity = 1
 Redundant internal coordinates found in file.  (old form).
 O,0,0.,0.,0.0082049854
 C,0,0.,0.,1.1846529243
 H,0,0.9265868985,0.,1.7635185451
 H,0,-0.9265868985,0.,1.7635185451
 Recover connectivity data from disk.
 ITRead=  0  0  0  0
 MicOpt= -1 -1 -1 -1
 NAtoms=      4 NQM=        4 NQMF=       0 NMMI=      0 NMMIF=      0
                NMic=       0 NMicF=      0.
                    Isotopes and Nuclear Properties:
 (Nuclear quadrupole moments (NQMom) in fm**2, nuclear magnetic moments (NMagM)
  in nuclear magnetons)

  Atom         1           2           3           4
 IAtWgt=          16          12           1           1
 AtmWgt=  15.9949146  12.0000000   1.0078250   1.0078250
 NucSpn=           0           0           1           1
 AtZEff=   5.6000000   3.6000000   1.0000000   1.0000000
 NQMom=    0.0000000   0.0000000   0.0000000   0.0000000
 NMagM=    0.0000000   0.0000000   2.7928460   2.7928460
 AtZNuc=   8.0000000   6.0000000   1.0000000   1.0000000
 Leave Link  101 at Tue Jul  9 10:56:48 2024, MaxMem=    97648640 cpu:               2.0 elap:               0.2
 (Enter /cluster/software/Gaussian/g16_B.01/l106.exe)
 Numerical evaluation of third derivatives.
 Nuclear step= 0.010000 Angstroms, electric field step= 0.000333 atomic units, NStep=1.
 Leave Link  106 at Tue Jul  9 10:56:48 2024, MaxMem=    97648640 cpu:               0.1 elap:               0.1
 (Enter /cluster/software/Gaussian/g16_B.01/l103.exe)

 GradGradGradGradGradGradGradGradGradGradGradGradGradGradGradGradGradGrad
 Berny optimization.
 Initialization pass.
                           ----------------------------
                           !    Initial Parameters    !
                           ! (Angstroms and Degrees)  !
 --------------------------                            --------------------------
 ! Name  Definition              Value          Derivative Info.                !
 --------------------------------------------------------------------------------
 ! R1    R(1,2)                  1.1764         calculate D2E/DX2 analytically  !
 ! R2    R(2,3)                  1.0925         calculate D2E/DX2 analytically  !
 ! R3    R(2,4)                  1.0925         calculate D2E/DX2 analytically  !
 ! A1    A(1,2,3)              121.9942         calculate D2E/DX2 analytically  !
 ! A2    A(1,2,4)              121.9942         calculate D2E/DX2 analytically  !
 ! A3    A(3,2,4)              116.0116         calculate D2E/DX2 analytically  !
 ! D1    D(1,2,4,3)            180.0            calculate D2E/DX2 analytically  !
 --------------------------------------------------------------------------------
 Trust Radius=3.00D-01 FncErr=1.00D-07 GrdErr=1.00D-07 EigMax=2.50D+02 EigMin=1.00D-04
 Number of steps in this run=      2 maximum allowed number of steps=      2.
 GradGradGradGradGradGradGradGradGradGradGradGradGradGradGradGradGradGrad

 Leave Link  103 at Tue Jul  9 10:56:48 2024, MaxMem=    97648640 cpu:               0.1 elap:               0.0
 (Enter /cluster/software/Gaussian/g16_B.01/l202.exe)
                          Input orientation:                          
 ---------------------------------------------------------------------
 Center     Atomic      Atomic             Coordinates (Angstroms)
 Number     Number       Type             X           Y           Z
 ---------------------------------------------------------------------
      1          8           0        0.000000   -0.000000    0.008205
      2          6           0       -0.000000    0.000000    1.184653
      3          1           0        0.926587    0.000000    1.763519
      4          1           0       -0.926587   -0.000000    1.763519
 ---------------------------------------------------------------------
                    Distance matrix (angstroms):
                    1          2          3          4
     1  O    0.000000
     2  C    1.176448   0.000000
     3  H    1.984865   1.092542   0.000000
     4  H    1.984865   1.092542   1.853174   0.000000
 Stoichiometry    CH2O
 Framework group  C2V[C2(CO),SGV(H2)]
 Deg. of freedom     3
 Full point group                 C2V     NOp   4
 RotChk:  IX=0 Diff= 1.35D-15
 Largest Abelian subgroup         C2V     NOp   4
 Largest concise Abelian subgroup C2      NOp   2
                         Standard orientation:                         
 ---------------------------------------------------------------------
 Center     Atomic      Atomic             Coordinates (Angstroms)
 Number     Number       Type             X           Y           Z
 ---------------------------------------------------------------------
      1          8           0        0.000000   -0.000000    0.660582
      2          6           0       -0.000000    0.000000   -0.515866
      3          1           0       -0.000000    0.926587   -1.094731
      4          1           0       -0.000000   -0.926587   -1.094731
 ---------------------------------------------------------------------
 Rotational constants (GHZ):         292.0315345          40.6515901          35.6842454
 Leave Link  202 at Tue Jul  9 10:56:49 2024, MaxMem=    97648640 cpu:               0.1 elap:               0.0
 (Enter /cluster/software/Gaussian/g16_B.01/l301.exe)
 Standard basis: CC-pVQZ (5D, 7F)
 Ernie: Thresh=  0.10000D-02 Tol=  0.10000D-05 Strict=F.
 Ernie:  6 primitive shells out of 90 were deleted.
 There are    84 symmetry adapted cartesian basis functions of A1  symmetry.
 There are    27 symmetry adapted cartesian basis functions of A2  symmetry.
 There are    43 symmetry adapted cartesian basis functions of B1  symmetry.
 There are    56 symmetry adapted cartesian basis functions of B2  symmetry.
 There are    64 symmetry adapted basis functions of A1  symmetry.
 There are    24 symmetry adapted basis functions of A2  symmetry.
 There are    36 symmetry adapted basis functions of B1  symmetry.
 There are    46 symmetry adapted basis functions of B2  symmetry.
   170 basis functions,   252 primitive gaussians,   210 cartesian basis functions
     8 alpha electrons        8 beta electrons
       nuclear repulsion energy        31.9543438652 Hartrees.
 IExCor=    0 DFT=F Ex=HF Corr=None ExCW=0 ScaHFX=  1.000000
 ScaDFX=  1.000000  1.000000  1.000000  1.000000 ScalE2=  1.000000  1.000000
 IRadAn=      5 IRanWt=     -1 IRanGd=            0 ICorTp=0 IEmpDi=  4
 NAtoms=    4 NActive=    4 NUniq=    3 SFac= 1.78D+00 NAtFMM=   60 NAOKFM=F Big=F
 Integral buffers will be    131072 words long.
 Raffenetti 1 integral format.
 Two-electron integral symmetry is turned on.
 Leave Link  301 at Tue Jul  9 10:56:49 2024, MaxMem=    97648640 cpu:               0.7 elap:               0.1
 (Enter /cluster/software/Gaussian/g16_B.01/l302.exe)
 NPDir=0 NMtPBC=     1 NCelOv=     1 NCel=       1 NClECP=     1 NCelD=      1
         NCelK=      1 NCelE2=     1 NClLst=     1 CellRange=     0.0.
 One-electron integrals computed using PRISM.
 One-electron integral symmetry used in STVInt
 PrsmSu:  requested number of processors reduced to:   4 ShMem   1 Linda.
 NBasis=   170 RedAO= T EigKep=  2.32D-04  NBF=    64    24    36    46
 NBsUse=   170 1.00D-06 EigRej= -1.00D+00 NBFU=    64    24    36    46
 Leave Link  302 at Tue Jul  9 10:56:49 2024, MaxMem=    97648640 cpu:               2.2 elap:               0.2
 (Enter /cluster/software/Gaussian/g16_B.01/l303.exe)
 DipDrv:  MaxL=1.
 Leave Link  303 at Tue Jul  9 10:56:49 2024, MaxMem=    97648640 cpu:               0.4 elap:               0.1
 (Enter /cluster/software/Gaussian/g16_B.01/l401.exe)
 Initial guess from the checkpoint file:  "inputFull_3q.chk"
 B after Tr=     0.000000   -0.000000    0.000000
         Rot=    1.000000   -0.000000    0.000000   -0.000000 Ang=   0.00 deg.
 Guess basis will be translated and rotated to current coordinates.
 JPrj=2 DoOrth=T DoCkMO=T.
 Initial guess orbital symmetries:
       Occupied  (A1) (A1) (A1) (A1) (B2) (A1) (B1) (B2)
       Virtual   (B1) (A1) (B2) (A1) (B1) (A1) (B2) (A1) (A1) (A2)
                 (B2) (A1) (B1) (B2) (B1) (A1) (B2) (A2) (B1) (A1)
                 (B2) (A1) (B2) (A1) (A1) (A1) (A1) (B1) (A2) (B2)
                 (B1) (A1) (B2) (B2) (A2) (A1) (A1) (B1) (B1) (B2)
                 (A2) (A1) (B2) (A1) (A2) (B1) (B2) (B1) (A1) (A1)
                 (B2) (A1) (A2) (B2) (B1) (B1) (A1) (B2) (B1) (A1)
                 (B2) (A2) (A1) (B2) (B2) (A1) (B1) (A1) (A1) (B2)
                 (A2) (B1) (A2) (A1) (B1) (A1) (A1) (B2) (A1) (B2)
                 (A1) (B2) (B1) (A2) (A2) (B1) (A1) (B1) (A2) (B2)
                 (B2) (A1) (B2) (B1) (A2) (B2) (B1) (A1) (A1) (B2)
                 (A1) (B1) (A1) (A2) (B2) (B1) (A1) (A1) (B1) (B2)
                 (A2) (A2) (A1) (B1) (B2) (A1) (B2) (A1) (A1) (B1)
                 (B2) (A2) (A2) (B1) (A1) (B2) (A1) (A2) (B2) (A1)
                 (B1) (B2) (A1) (A2) (B1) (A1) (B2) (A1) (B1) (B2)
                 (A2) (B1) (B2) (B2) (A1) (B1) (A1) (B2) (A1) (A2)
                 (A1) (B1) (B2) (A2) (A1) (B2) (A1) (B1) (B2) (A1)
                 (A1) (A1)
 The electronic state of the initial guess is 1-A1.
 Leave Link  401 at Tue Jul  9 10:56:49 2024, MaxMem=    97648640 cpu:               1.7 elap:               0.1
 (Enter /cluster/software/Gaussian/g16_B.01/l502.exe)
 Integral symmetry usage will be decided dynamically.
 Closed shell SCF:
 Using DIIS extrapolation, IDIIS=  1040.
 NGot=    97648640 LenX=    97554016 LenY=    97509475
 Requested convergence on RMS density matrix=1.00D-08 within 128 cycles.
 Requested convergence on MAX density matrix=1.00D-06.
 Requested convergence on             energy=1.00D-06.
 No special actions if energy rises.
 Fock matrices will be formed incrementally for  20 cycles.

 Cycle   1  Pass 1  IDiag  1:
 FoFJK:  IHMeth= 1 ICntrl=       0 DoSepK=F KAlg= 0 I1Cent=           0 FoldK=F
 IRaf= 990000000 NMat=       1 IRICut=       1 DoRegI=T DoRafI=F ISym2E= 1 IDoP0=0 IntGTp=1.
 FoFCou: FMM=F IPFlag=           0 FMFlag=      100000 FMFlg1=           0
         NFxFlg=           0 DoJE=F BraDBF=F KetDBF=F FulRan=T
         wScrn=  0.000000 ICntrl=         0 IOpCl=  0 I1Cent=           0 NGrid=           0
         NMat0=    1 NMatS0=      1 NMatT0=    0 NMatD0=    1 NMtDS0=    0 NMtDT0=    0
 Petite list used in FoFCou.
 E= -113.922382479946    
 DIIS: error= 4.73D-08 at cycle   1 NSaved=   1.
 NSaved= 1 IEnMin= 1 EnMin= -113.922382479946     IErMin= 1 ErrMin= 4.73D-08
 ErrMax= 4.73D-08  0.00D+00 EMaxC= 1.00D-01 BMatC= 5.09D-14 BMatP= 5.09D-14
 IDIUse=1 WtCom= 1.00D+00 WtEn= 0.00D+00
 Coeff-Com:  0.100D+01
 Coeff:      0.100D+01
 Gap=     0.556 Goal=   None    Shift=    0.000
 RMSDP=1.88D-09 MaxDP=4.64D-08              OVMax= 1.94D-07

 SCF Done:  E(RHF) =  -113.922382480     A.U. after    1 cycles
            NFock=  1  Conv=0.19D-08     -V/T= 2.0000
 KE= 1.139209141521D+02 PE=-3.325786548251D+02 EE= 7.278101432783D+01
 Leave Link  502 at Tue Jul  9 10:56:50 2024, MaxMem=    97648640 cpu:              11.7 elap:               0.8
 (Enter /cluster/software/Gaussian/g16_B.01/l801.exe)
 Range of M.O.s used for correlation:     1   170
 NBasis=   170 NAE=     8 NBE=     8 NFC=     0 NFV=     0
 NROrb=    170 NOA=     8 NOB=     8 NVA=   162 NVB=   162

 **** Warning!!: The largest alpha MO coefficient is  0.16502061D+02

 Leave Link  801 at Tue Jul  9 10:56:50 2024, MaxMem=    97648640 cpu:               0.6 elap:               0.1
 (Enter /cluster/software/Gaussian/g16_B.01/l1002.exe)
 Minotr:  Closed shell wavefunction.
          Direct CPHF calculation.
          Differentiating once with respect to electric field.
                with respect to dipole field.
          Electric field/nuclear overlap derivatives assumed to be zero.
          Using symmetry in CPHF.
          Requested convergence is 1.0D-08 RMS, and 1.0D-07 maximum.
          Secondary convergence is 1.0D-12 RMS, and 1.0D-12 maximum.
          NewPWx=F KeepS1=T KeepF1=T KeepIn=T MapXYZ=F SortEE=F KeepMc=T.
 Two-electron integral symmetry used by symmetrizing perturbed Fock matrices.
          MDV=      97648640 using IRadAn=       4.
          Solving linear equations simultaneously, MaxMat=     384.
          There are     3 degrees of freedom in the 1st order CPHF.  IDoFFX=0 NUNeed=     3.
      3 vectors produced by pass  0 Test12= 4.32D-14 3.33D-08 XBig12= 5.15D+00 1.48D+00.
 AX will form     3 AO Fock derivatives at one time.
 FoFJK:  IHMeth= 1 ICntrl=       0 DoSepK=F KAlg= 0 I1Cent=           0 FoldK=F
 IRaf= 990000000 NMat=       3 IRICut=       1 DoRegI=T DoRafI=F ISym2E=-1 IDoP0=0 IntGTp=1.
 FoFCou: FMM=F IPFlag=           0 FMFlag=      100000 FMFlg1=           0
         NFxFlg=           0 DoJE=F BraDBF=F KetDBF=F FulRan=T
         wScrn=  0.000000 ICntrl=         0 IOpCl=  0 I1Cent=           0 NGrid=           0
         NMat0=    3 NMatS0=      3 NMatT0=    0 NMatD0=    3 NMtDS0=    0 NMtDT0=    0
 Petite list used in FoFCou.
      3 vectors produced by pass  1 Test12= 4.32D-14 3.33D-08 XBig12= 6.93D-01 2.30D-01.
      3 vectors produced by pass  2 Test12= 4.32D-14 3.33D-08 XBig12= 6.16D-02 9.43D-02.
      3 vectors produced by pass  3 Test12= 4.32D-14 3.33D-08 XBig12= 2.34D-03 1.88D-02.
      3 vectors produced by pass  4 Test12= 4.32D-14 3.33D-08 XBig12= 8.91D-05 3.77D-03.
      3 vectors produced by pass  5 Test12= 4.32D-14 3.33D-08 XBig12= 8.62D-06 1.07D-03.
      3 vectors produced by pass  6 Test12= 4.32D-14 3.33D-08 XBig12= 1.02D-07 9.38D-05.
      3 vectors produced by pass  7 Test12= 4.32D-14 3.33D-08 XBig12= 1.28D-09 1.11D-05.
      3 vectors produced by pass  8 Test12= 4.32D-14 3.33D-08 XBig12= 1.30D-11 9.91D-07.
      1 vectors produced by pass  9 Test12= 4.32D-14 3.33D-08 XBig12= 3.23D-13 2.00D-07.
 InvSVY:  IOpt=1 It=  1 EMax= 1.62D-16
 Solved reduced A of dimension    28 with     3 vectors.
 End of Minotr F.D. properties file   721 does not exist.
 End of Minotr F.D. properties file   722 does not exist.
 End of Minotr F.D. properties file   788 does not exist.
 Leave Link 1002 at Tue Jul  9 10:56:59 2024, MaxMem=    97648640 cpu:             121.3 elap:               7.8
 (Enter /cluster/software/Gaussian/g16_B.01/l1101.exe)
 Using compressed storage, NAtomX=     4.
 Will process      5 centers per pass.
 PrsmSu:  requested number of processors reduced to:   2 ShMem   1 Linda.
 PrsmSu:  requested number of processors reduced to:   9 ShMem   1 Linda.
 Leave Link 1101 at Tue Jul  9 10:57:00 2024, MaxMem=    97648640 cpu:               2.4 elap:               0.4
 (Enter /cluster/software/Gaussian/g16_B.01/l1102.exe)
 Symmetrizing basis deriv contribution to polar:
 IMax=3 JMax=2 DiffMx= 0.00D+00
 Leave Link 1102 at Tue Jul  9 10:57:00 2024, MaxMem=    97648640 cpu:               1.5 elap:               0.3
 (Enter /cluster/software/Gaussian/g16_B.01/l1110.exe)
 Forming Gx(P) for the SCF density, NAtomX=     4.
 Integral derivatives from FoFJK, PRISM(SPDF).
 Do as many integral derivatives as possible in FoFJK.
 G2DrvN: MDV=      97648192.
 G2DrvN: will do     3 centers at a time, making    2 passes.
 Estimated number of processors is:   10
 G2DrvN:  IPasSy=1 do centers    0 through    2.
 PxScal for G2LodP:  IOpCl= 0 ISclPx=1 IMOff=     1 NMtTot=     4 NTT=   14535 ScalPx= 2.48D+00
 Calling FoFCou, ICntrl=  3107 FMM=F I1Cent=   0 AccDes= 0.00D+00.
 FoFJK:  IHMeth= 1 ICntrl=    3107 DoSepK=F KAlg= 0 I1Cent=           0 FoldK=F
 IRaf=         0 NMat=       1 IRICut=       1 DoRegI=T DoRafI=F ISym2E= 1 IDoP0=0 IntGTp=1.
 FoFCou: FMM=F IPFlag=           0 FMFlag=      100000 FMFlg1=           0
         NFxFlg=           0 DoJE=F BraDBF=F KetDBF=F FulRan=T
         wScrn=  0.000000 ICntrl=      3107 IOpCl=  0 I1Cent=           0 NGrid=           0
         NMat0=    1 NMatS0=      1 NMatT0=    0 NMatD0=    4 NMtDS0=    3 NMtDT0=    0
 Petite list used in FoFCou.
 CoulSu:  requested number of processors reduced to:  10 ShMem   1 Linda.
 G2DrvN:  IPasSy=1 do centers    3 through    4.
 PxScal for G2LodP:  IOpCl= 0 ISclPx=1 IMOff=     1 NMtTot=     4 NTT=   14535 ScalPx= 2.48D+00
 Calling FoFCou, ICntrl=  3107 FMM=F I1Cent=   0 AccDes= 0.00D+00.
 CoulSu:  requested number of processors reduced to:  10 ShMem   1 Linda.
 OCSyFx:  MaxI=   5 MaxJ=   5 IndFxT=           0.
 G2DrvN:  IPasSy=2 do centers    0 through    2.
 G2DrvN:  IPasSy=2 do centers    3 through    4.
 End of G2Drv F.D. properties file   721 does not exist.
 End of G2Drv F.D. properties file   722 does not exist.
 End of G2Drv F.D. properties file   788 does not exist.
 Leave Link 1110 at Tue Jul  9 10:57:09 2024, MaxMem=    97648640 cpu:              78.1 elap:               7.7
 (Enter /cluster/software/Gaussian/g16_B.01/l1002.exe)
 Minotr:  Closed shell wavefunction.
          IDoAtm=1111
          Direct CPHF calculation.
          Differentiating once with respect to electric field.
                with respect to dipole field.
          Differentiating once with respect to nuclear coordinates.
          Using symmetry in CPHF.
          Requested convergence is 1.0D-08 RMS, and 1.0D-07 maximum.
          Secondary convergence is 1.0D-12 RMS, and 1.0D-12 maximum.
          NewPWx=T KeepS1=F KeepF1=F KeepIn=T MapXYZ=F SortEE=F KeepMc=T.
 Two-electron integrals replicated using symmetry.
          MDV=      97648640 using IRadAn=       4.
          Solving linear equations simultaneously, MaxMat=     384.
 FoF2E skips out because all densities are zero.
 FoFJK:  IHMeth= 1 ICntrl=       0 DoSepK=F KAlg= 0 I1Cent=           0 FoldK=F
 IRaf= 990000000 NMat=       3 IRICut=       1 DoRegI=T DoRafI=F ISym2E= 2 IDoP0=0 IntGTp=1.
 FoFCou: FMM=F IPFlag=           0 FMFlag=      100000 FMFlg1=           0
         NFxFlg=           0 DoJE=F BraDBF=F KetDBF=F FulRan=T
         wScrn=  0.000000 ICntrl=         0 IOpCl=  0 I1Cent=           0 NGrid=           0
         NMat0=    3 NMatS0=      3 NMatT0=    0 NMatD0=    3 NMtDS0=    0 NMtDT0=    0
 Integrals replicated using symmetry in FoFCou.
          There are    12 degrees of freedom in the 1st order CPHF.  IDoFFX=4 NUNeed=    12.
 Will reuse    3 saved solutions.
      9 vectors produced by pass  0 Test12= 1.08D-14 8.33D-09 XBig12= 6.15D-02 9.02D-02.
 AX will form     3 AO Fock derivatives at one time.
      9 vectors produced by pass  1 Test12= 1.08D-14 8.33D-09 XBig12= 1.03D-02 4.70D-02.
      9 vectors produced by pass  2 Test12= 1.08D-14 8.33D-09 XBig12= 2.24D-04 5.73D-03.
      9 vectors produced by pass  3 Test12= 1.08D-14 8.33D-09 XBig12= 2.19D-06 4.61D-04.
      9 vectors produced by pass  4 Test12= 1.08D-14 8.33D-09 XBig12= 2.43D-08 5.72D-05.
      9 vectors produced by pass  5 Test12= 1.08D-14 8.33D-09 XBig12= 2.17D-10 5.41D-06.
      8 vectors produced by pass  6 Test12= 1.08D-14 8.33D-09 XBig12= 2.77D-12 6.47D-07.
      5 vectors produced by pass  7 Test12= 1.08D-14 8.33D-09 XBig12= 1.86D-14 2.90D-08.
 InvSVY:  IOpt=1 It=  1 EMax= 8.88D-16
 Solved reduced A of dimension    67 with     9 vectors.
 FullF1:  Do perturbations      1 to       4.
 FullF1:  Do perturbations      5 to       8.
 FullF1:  Do perturbations      9 to      12.
 Isotropic polarizability for W=    0.000000       15.27 Bohr**3.
 FullF1:  Do perturbations      1 to       3.
 FullF1:  Do perturbations      4 to       6.
 End of Minotr F.D. properties file   721 does not exist.
 End of Minotr F.D. properties file   722 does not exist.
 End of Minotr F.D. properties file   788 does not exist.
 Leave Link 1002 at Tue Jul  9 10:57:37 2024, MaxMem=    97648640 cpu:             453.7 elap:              28.5
 (Enter /cluster/software/Gaussian/g16_B.01/l601.exe)
 Copying SCF densities to generalized density rwf, IOpCl= 0 IROHF=0.

 **********************************************************************

            Population analysis using the SCF Density.

 **********************************************************************

 Orbital symmetries:
       Occupied  (A1) (A1) (A1) (A1) (B2) (A1) (B1) (B2)
       Virtual   (B1) (A1) (B2) (A1) (B1) (A1) (B2) (A1) (A1) (A2)
                 (B2) (A1) (B1) (B2) (B1) (A1) (B2) (A2) (B1) (A1)
                 (B2) (A1) (B2) (A1) (A1) (A1) (A1) (B1) (A2) (B2)
                 (B1) (A1) (B2) (B2) (A2) (A1) (A1) (B1) (B1) (B2)
                 (A2) (A1) (B2) (A1) (A2) (B1) (B2) (B1) (A1) (A1)
                 (B2) (A1) (A2) (B2) (B1) (B1) (A1) (B2) (B1) (A1)
                 (B2) (A2) (A1) (B2) (B2) (A1) (B1) (A1) (A1) (B2)
                 (A2) (B1) (A2) (A1) (B1) (A1) (A1) (B2) (A1) (B2)
                 (A1) (B2) (B1) (A2) (A2) (B1) (A1) (B1) (A2) (B2)
                 (B2) (A1) (B2) (B1) (A2) (B2) (B1) (A1) (A1) (B2)
                 (A1) (B1) (A1) (A2) (B2) (B1) (A1) (A1) (B1) (B2)
                 (A2) (A2) (A1) (B1) (B2) (A1) (B2) (A1) (A1) (B1)
                 (B2) (A2) (A2) (B1) (A1) (B2) (A1) (A2) (B2) (A1)
                 (B1) (B2) (A1) (A2) (B1) (A1) (B2) (A1) (B1) (B2)
                 (A2) (B1) (B2) (B2) (A1) (B1) (A1) (B2) (A1) (A2)
                 (A1) (B1) (B2) (A2) (A1) (B2) (A1) (B1) (B2) (A1)
                 (A1) (A1)
 The electronic state is 1-A1.
 Alpha  occ. eigenvalues --  -20.57225 -11.33173  -1.42421  -0.86842  -0.70272
 Alpha  occ. eigenvalues --   -0.65996  -0.54896  -0.43962
 Alpha virt. eigenvalues --    0.11675   0.12254   0.17619   0.21810   0.33659
 Alpha virt. eigenvalues --    0.34455   0.34506   0.46804   0.47939   0.54093
 Alpha virt. eigenvalues --    0.54367   0.62955   0.65271   0.67606   0.74497
 Alpha virt. eigenvalues --    0.74995   0.81711   0.87010   0.90426   0.95848
 Alpha virt. eigenvalues --    1.02607   1.07916   1.12122   1.14180   1.21814
 Alpha virt. eigenvalues --    1.33986   1.46423   1.47109   1.50882   1.54555
 Alpha virt. eigenvalues --    1.63119   1.63184   1.73481   1.78683   1.87723
 Alpha virt. eigenvalues --    1.92413   2.02338   2.04145   2.04848   2.07392
 Alpha virt. eigenvalues --    2.10714   2.13876   2.28999   2.36614   2.37907
 Alpha virt. eigenvalues --    2.38024   2.48062   2.58158   2.61869   2.66603
 Alpha virt. eigenvalues --    2.66618   2.78947   2.81345   2.87623   2.90702
 Alpha virt. eigenvalues --    3.09753   3.10070   3.20082   3.22006   3.42788
 Alpha virt. eigenvalues --    3.48831   3.58092   3.62583   3.67687   3.70659
 Alpha virt. eigenvalues --    3.72497   3.75012   3.89487   4.05016   4.05862
 Alpha virt. eigenvalues --    4.13194   4.33364   4.38214   4.39992   4.58159
 Alpha virt. eigenvalues --    4.61769   4.70784   4.73176   5.05651   5.07229
 Alpha virt. eigenvalues --    5.38052   5.42105   5.51060   5.53828   5.67917
 Alpha virt. eigenvalues --    5.72653   5.84259   6.01740   6.03792   6.10888
 Alpha virt. eigenvalues --    6.20322   6.26310   6.26855   6.28022   6.34210
 Alpha virt. eigenvalues --    6.36712   6.41167   6.49732   6.63424   6.74734
 Alpha virt. eigenvalues --    6.76453   6.78617   6.92702   7.01869   7.22498
 Alpha virt. eigenvalues --    7.47471   7.58711   7.71664   7.71724   7.75167
 Alpha virt. eigenvalues --    7.81756   7.85069   7.87315   7.96875   8.04586
 Alpha virt. eigenvalues --    8.06865   8.28152   8.29954   8.46843   8.50222
 Alpha virt. eigenvalues --    8.53865   8.59278   8.77035   8.87573   8.89699
 Alpha virt. eigenvalues --    8.98280   9.29852   9.35281   9.37696   9.45138
 Alpha virt. eigenvalues --    9.59884   9.67139   9.93362  10.16252  10.27406
 Alpha virt. eigenvalues --   10.29996  10.36802  10.57295  10.63446  10.72700
 Alpha virt. eigenvalues --   10.74888  10.95049  11.12207  11.26019  11.42203
 Alpha virt. eigenvalues --   11.59862  11.61557  11.62204  11.84632  11.99978
 Alpha virt. eigenvalues --   12.23603  12.37545  12.59620  12.76615  12.91904
 Alpha virt. eigenvalues --   12.99073  13.37317  13.93088  14.47283  14.68506
 Alpha virt. eigenvalues --   25.94903  42.81377
          Condensed to atoms (all electrons):
               1          2          3          4
     1  O    7.842617   0.684753  -0.080914  -0.080914
     2  C    0.684753   4.198726   0.394111   0.394111
     3  H   -0.080914   0.394111   0.817331  -0.149149
     4  H   -0.080914   0.394111  -0.149149   0.817331
 Mulliken charges:
               1
     1  O   -0.365541
     2  C    0.328299
     3  H    0.018621
     4  H    0.018621
 Sum of Mulliken charges =  -0.00000
 Mulliken charges with hydrogens summed into heavy atoms:
               1
     1  O   -0.365541
     2  C    0.365541
 APT charges:
               1
     1  O   -0.694279
     2  C    0.775353
     3  H   -0.040537
     4  H   -0.040537
 Sum of APT charges =  -0.00000
 APT charges with hydrogens summed into heavy atoms:
               1
     1  O   -0.694279
     2  C    0.694279
 Electronic spatial extent (au):  <R**2>=             58.9475
 Charge=             -0.0000 electrons
 Dipole moment (field-independent basis, Debye):
    X=              0.0000    Y=              0.0000    Z=             -2.6821  Tot=              2.6821
 Quadrupole moment (field-independent basis, Debye-Ang):
   XX=            -11.5950   YY=            -11.4103   ZZ=            -12.0836
   XY=              0.0000   XZ=              0.0000   YZ=             -0.0000
 Traceless Quadrupole moment (field-independent basis, Debye-Ang):
   XX=              0.1013   YY=              0.2860   ZZ=             -0.3873
   XY=              0.0000   XZ=              0.0000   YZ=             -0.0000
 Octapole moment (field-independent basis, Debye-Ang**2):
  XXX=              0.0000  YYY=             -0.0000  ZZZ=              0.2372  XYY=              0.0000
  XXY=             -0.0000  XXZ=              0.4549  XZZ=              0.0000  YZZ=              0.0000
  YYZ=             -0.5958  XYZ=             -0.0000
 Hexadecapole moment (field-independent basis, Debye-Ang**3):
 XXXX=            -10.0955 YYYY=            -17.3096 ZZZZ=            -43.4322 XXXY=             -0.0000
 XXXZ=             -0.0000 YYYX=             -0.0000 YYYZ=             -0.0000 ZZZX=             -0.0000
 ZZZY=              0.0000 XXYY=             -4.9162 XXZZ=             -8.8513 YYZZ=             -9.6967
 XXYZ=             -0.0000 YYXZ=             -0.0000 ZZXY=             -0.0000
 N-N= 3.195434386517D+01 E-N=-3.325786535514D+02  KE= 1.139209141521D+02
 Symmetry A1   KE= 1.036845435573D+02
 Symmetry A2   KE=-1.561232506138D-21
 Symmetry B1   KE= 3.514066265745D+00
 Symmetry B2   KE= 6.722304329055D+00
  Exact polarizability:  10.780   0.000  15.172   0.000   0.000  19.859
 Approx polarizability:  10.437   0.000  12.368   0.000   0.000  17.348
 No NMR shielding tensors so no spin-rotation constants.
 Leave Link  601 at Tue Jul  9 10:57:38 2024, MaxMem=    97648640 cpu:               3.0 elap:               0.2
 (Enter /cluster/software/Gaussian/g16_B.01/l701.exe)
 SCFChk:  SCF convergence  1.88D-09 required  1.00D-08
 ... and contract with generalized density number  0.
 Compute integral second derivatives.
 Entering OneElI...
 Calculate overlap and kinetic energy integrals
    NBasis = 210  MinDer = 2  MaxDer = 2
 Requested accuracy = 0.1000D-12
 PrsmSu:  requested number of processors reduced to:   1 ShMem   1 Linda.
 PrmmSu-InSpLW:  IPartL=    0 NPrtUS=    1 NPrtUL=    1 DoSpLW=F IThBeg=    0 IThEnd=    0 NThAct=    1.
 PrSmSu:  IncTry=   512 NBBP=           1275 NTPThr=   100 NPartT=    1 Incr=          12 LDynOK=F GPUOK=F.
 PrsmSu:  NPrtUS=   1 ThrOK=F IAlg=2 LenDen=           0 ISkipM=0 DoSpLW=F IThBeg=    0 IThEnd=    0.
 Prism:   IPart=     0 DynPar=F LinDyn=F Incr=          12.
 PRISM was handed    97371686 working-precision words and  1275 shell-pairs
 IPart=  0 NShTot=        1275 NBatch=          77 AvBLen=        16.6
 PrSmSu:  NxtVal=             13.
 Entering OneElI...
 Calculate potential energy integrals
    NBasis = 210  MinDer = 2  MaxDer = 2
 Requested accuracy = 0.1000D-12
 PrsmSu:  requested number of processors reduced to:   4 ShMem   1 Linda.
 PrmmSu-InSpLW:  IPartL=    0 NPrtUS=    4 NPrtUL=    1 DoSpLW=F IThBeg=    0 IThEnd=    3 NThAct=    4.
 PrSmSu:  IncTry=   512 NBBP=           5092 NTPThr=   100 NPartT=    4 Incr=          12 LDynOK=F GPUOK=F.
 PrsmSu:  NPrtUS=   4 ThrOK=T IAlg=2 LenDen=           0 ISkipM=0 DoSpLW=F IThBeg=    0 IThEnd=    3.
 Prism:   IPart=     0 DynPar=F LinDyn=F Incr=          12.
 PRISM was handed    24333992 working-precision words and  1273 shell-pairs
 PRISM was handed    24333992 working-precision words and  1273 shell-pairs
 PRISM was handed    24333992 working-precision words and  1273 shell-pairs
 PRISM was handed    24333992 working-precision words and  1273 shell-pairs
 IPart=  0 NShTot=        1332 NBatch=         333 AvBLen=         4.0
 IPart=  2 NShTot=        1236 NBatch=         309 AvBLen=         4.0
 IPart=  3 NShTot=        1224 NBatch=         306 AvBLen=         4.0
 IPart=  1 NShTot=        1300 NBatch=         325 AvBLen=         4.0
 PrSmSu:  NxtVal=             49.
 Polarizability after L701:
                1             2             3 
      1  0.107800D+02
      2  0.000000D+00  0.151718D+02
      3  0.000000D+00  0.000000D+00  0.198594D+02
 Dipole Derivatives after L701:
                 1             2             3             4             5 
      1  -0.391401D+00  0.000000D+00  0.000000D+00  0.222224D+00  0.000000D+00
      2   0.000000D+00 -0.536503D+00  0.000000D+00  0.000000D+00  0.882365D+00
      3   0.000000D+00  0.000000D+00 -0.115493D+01  0.000000D+00  0.000000D+00
                 6             7             8             9            10 
      1   0.000000D+00  0.845883D-01  0.000000D+00  0.000000D+00  0.845883D-01
      2   0.000000D+00  0.000000D+00 -0.172931D+00  0.687647D-01  0.000000D+00
      3   0.122147D+01  0.000000D+00  0.136431D+00 -0.332687D-01  0.000000D+00
                11            12 
      1   0.000000D+00  0.000000D+00
      2  -0.172931D+00 -0.687647D-01
      3  -0.136431D+00 -0.332687D-01
 Hessian after L701:
                1             2             3             4             5 
      1  0.130810D+02
      2  0.000000D+00  0.106043D+02
      3  0.000000D+00  0.000000D+00 -0.881283D+00
      4 -0.132178D+02  0.000000D+00  0.000000D+00  0.180331D+02
      5  0.000000D+00 -0.117299D+02  0.000000D+00  0.000000D+00  0.142958D+02
      6  0.000000D+00  0.000000D+00  0.140041D+01  0.000000D+00  0.000000D+00
      7  0.684044D-01  0.000000D+00  0.000000D+00 -0.240764D+01  0.000000D+00
      8  0.000000D+00  0.562788D+00 -0.276439D+00  0.000000D+00 -0.128298D+01
      9  0.000000D+00 -0.317865D+00 -0.259563D+00  0.000000D+00 -0.902062D+00
     10  0.684044D-01  0.000000D+00  0.000000D+00 -0.240764D+01  0.000000D+00
     11  0.000000D+00  0.562788D+00  0.276439D+00  0.000000D+00 -0.128298D+01
     12  0.000000D+00  0.317865D+00 -0.259563D+00  0.000000D+00  0.902062D+00
                6             7             8             9            10 
      6  0.241237D+01
      7  0.000000D+00  0.205403D+01
      8 -0.795933D+00  0.000000D+00  0.126182D+01
      9 -0.190639D+01  0.000000D+00  0.114615D+01  0.185082D+01
     10  0.000000D+00  0.285206D+00  0.000000D+00  0.000000D+00  0.205403D+01
     11  0.795933D+00  0.000000D+00 -0.541631D+00  0.737775D-01  0.000000D+00
     12 -0.190639D+01  0.000000D+00 -0.737775D-01  0.315127D+00  0.000000D+00
               11            12 
     11  0.126182D+01
     12 -0.114615D+01  0.185082D+01
 Leave Link  701 at Tue Jul  9 10:57:38 2024, MaxMem=    97648640 cpu:               3.9 elap:               0.5
 (Enter /cluster/software/Gaussian/g16_B.01/l702.exe)
 L702 exits ... SP integral derivatives will be done elsewhere.
 Leave Link  702 at Tue Jul  9 10:57:38 2024, MaxMem=    97648640 cpu:               0.3 elap:               0.0
 (Enter /cluster/software/Gaussian/g16_B.01/l703.exe)
 Integral derivatives from FoFJK, PRISM(SPDF).
 Compute integral second derivatives, UseDBF=F ICtDFT=           0.
 ICntrl=    100127.
 Calling FoFJK, ICntrl=    100127 FMM=F ISym2X=1 I1Cent= 0 IOpClX= 0 NMat=1 NMatS=1 NMatT=0.
 FoFJK:  IHMeth= 1 ICntrl=  100127 DoSepK=F KAlg= 0 I1Cent=           0 FoldK=F
 IRaf=         0 NMat=       1 IRICut=       1 DoRegI=T DoRafI=F ISym2E= 1 IDoP0=0 IntGTp=1.
 FoFCou: FMM=F IPFlag=           0 FMFlag=      100000 FMFlg1=         800
         NFxFlg=           0 DoJE=F BraDBF=F KetDBF=F FulRan=T
         wScrn=  0.000000 ICntrl=    100127 IOpCl=  0 I1Cent=           0 NGrid=           0
         NMat0=    1 NMatS0=      1 NMatT0=    0 NMatD0=    1 NMtDS0=    0 NMtDT0=    0
 Petite list used in FoFCou.
 FoFCou:  KetSym=F NOpSet=  4 NOpAb=4 NOp=  4.
 FoFCou:  CnvScl= 1.00D+00 Thresh= 1.00D-12 IAcrcy=      10.
 PrismS was handed    97477916 working-precision words and  1275 shell-pairs
 FoFCou: LinMIO=F DoNuc=F BraDBF=F KetDBF=F HaveP=T PDBF=F HaveZ=T HaveW=F
         NIJTC =      15 NIJTAt=       0 NIJTCD=       0 NIJTT =      15
         IJTBeg=       1 IJTEnd=      15 KLTBeg=       1 KLTEnd=      15
         IPTBeg=       1 IPTEnd=      15 IPTBCv=       1 IPTECv=      15
         IZTBeg=       1 IZTEnd=      15 IZTBCv=       1 IZTECv=      15
         IWTBeg=      16 IWTEnd=      15 IWTBCv=      16 IWTECv=      15
         INTBeg=       1 INTEnd=       0 IFTBCv=       1 IFTECv=      15
 NCel replicated for PrismC:     1
 CoulSu:  requested number of processors reduced to:   4 ShMem   1 Linda.
 CoulSu-InSpLW:  IPartL=    0 NPrtUS=    4 NPrtUL=    1 DoSpLW=F IThBeg=    0 IThEnd=    3 NThAct=    4.
 CoulSu:  IncTry=  1024 NBBP=         813450 NTPThr=   100 NPartT=    4 Incr=        1024 LDynOK=F GPUOK=F.
 CoulSu:  NPrtUS=   4 ThrOK=T IAlg=2 LenDen=           0 LWGrdD=           0 DoCopy=F ISkipM=0
          DoSpLW=F IThBeg=    0 IThEnd=    3.
 Enter PrismC:  IPart=  0 JobTyp=22 DoJE=F Cont=F.
 PrismC:  IPart=     0 DynPar=T LinDyn=F Incr=        1024 UseFst=F UseS4=T ISplat=2.
 PrismC was handed    24348085 working-precision words and  1275 shell-pairs
 Enter PrismC:  IPart=  2 JobTyp=22 DoJE=F Cont=F.
 PrismC:  IPart=     2 DynPar=T LinDyn=F Incr=        1024 UseFst=F UseS4=T ISplat=2.
 PrismC was handed    24348085 working-precision words and  1275 shell-pairs
 Enter PrismC:  IPart=  3 JobTyp=22 DoJE=F Cont=F.
 Enter PrismC:  IPart=  1 JobTyp=22 DoJE=F Cont=F.
 PrismC:  IPart=     3 DynPar=T LinDyn=F Incr=        1024 UseFst=F UseS4=T ISplat=2.
 PrismC was handed    24348085 working-precision words and  1275 shell-pairs
 PrismC:  IPart=     1 DynPar=T LinDyn=F Incr=        1024 UseFst=F UseS4=T ISplat=2.
 PrismC was handed    24348085 working-precision words and  1275 shell-pairs
 IPart=  0 NShTot=      116163 NShNF=      116163 NShFF=           0 MinMC=       3
           NShCPU=      116163 NBCPU=        4831 AvBCPU=        24.0
           NShGPU=           0 NBGPU=           0 AvBGPU=         0.0
 IPart=  2 NShTot=      115530 NShNF=      115530 NShFF=           0 MinMC=       3
           NShCPU=      115530 NBCPU=        4187 AvBCPU=        27.6
           NShGPU=           0 NBGPU=           0 AvBGPU=         0.0
 IPart=  1 NShTot=      115211 NShNF=      115211 NShFF=           0 MinMC=       3
           NShCPU=      115211 NBCPU=        4328 AvBCPU=        26.6
           NShGPU=           0 NBGPU=           0 AvBGPU=         0.0
 IPart=  3 NShTot=      108049 NShNF=      108049 NShFF=           0 MinMC=       3
           NShCPU=      108049 NBCPU=        4199 AvBCPU=        25.7
           NShGPU=           0 NBGPU=           0 AvBGPU=         0.0
 CoulSu:  NxtVal=         604161 LenVP=       24348086 MinMC=       3.
 Polarizability after L703:
                1             2             3 
      1  0.107800D+02
      2  0.000000D+00  0.151718D+02
      3  0.000000D+00  0.000000D+00  0.198594D+02
 Dipole Derivatives after L703:
                 1             2             3             4             5 
      1  -0.391401D+00  0.000000D+00  0.000000D+00  0.222224D+00  0.000000D+00
      2   0.000000D+00 -0.536503D+00  0.000000D+00  0.000000D+00  0.882365D+00
      3   0.000000D+00  0.000000D+00 -0.115493D+01  0.000000D+00  0.000000D+00
                 6             7             8             9            10 
      1   0.000000D+00  0.845883D-01  0.000000D+00  0.000000D+00  0.845883D-01
      2   0.000000D+00  0.000000D+00 -0.172931D+00  0.687647D-01  0.000000D+00
      3   0.122147D+01  0.000000D+00  0.136431D+00 -0.332687D-01  0.000000D+00
                11            12 
      1   0.000000D+00  0.000000D+00
      2  -0.172931D+00 -0.687647D-01
      3  -0.136431D+00 -0.332687D-01
 Hessian after L703:
                1             2             3             4             5 
      1  0.235437D-01
      2  0.000000D+00  0.867782D-01
      3  0.000000D+00  0.000000D+00  0.106175D+01
      4 -0.713924D-01  0.000000D+00  0.000000D+00  0.216486D+00
      5  0.000000D+00 -0.122663D+00  0.000000D+00  0.000000D+00  0.660019D+00
      6  0.000000D+00  0.000000D+00 -0.966199D+00  0.000000D+00  0.000000D+00
      7  0.239244D-01  0.000000D+00  0.000000D+00 -0.725467D-01  0.000000D+00
      8  0.000000D+00  0.179427D-01  0.179467D-01  0.000000D+00 -0.268678D+00
      9  0.000000D+00  0.438800D-01 -0.477774D-01  0.000000D+00  0.899804D-01
     10  0.239244D-01  0.000000D+00  0.000000D+00 -0.725467D-01  0.000000D+00
     11  0.000000D+00  0.179427D-01 -0.179467D-01  0.000000D+00 -0.268678D+00
     12  0.000000D+00 -0.438800D-01 -0.477774D-01  0.000000D+00 -0.899804D-01
                6             7             8             9            10 
      6  0.118996D+01
      7  0.000000D+00  0.243111D-01
      8  0.886577D-01  0.000000D+00  0.271624D+00
      9 -0.111881D+00  0.000000D+00 -0.120232D+00  0.149499D+00
     10  0.000000D+00  0.243112D-01  0.000000D+00  0.000000D+00  0.243111D-01
     11 -0.886577D-01  0.000000D+00 -0.208892D-01 -0.136280D-01  0.000000D+00
     12 -0.111881D+00  0.000000D+00  0.136280D-01  0.101600D-01  0.000000D+00
               11            12 
     11  0.271624D+00
     12  0.120232D+00  0.149499D+00
 Leave Link  703 at Tue Jul  9 10:57:59 2024, MaxMem=    97648640 cpu:              83.7 elap:              20.5
 (Enter /cluster/software/Gaussian/g16_B.01/l716.exe)
 FrcOut:
 IF    =       107 IFX   =       119 IFXYZ =       131
 IFFX  =       143 IFFFX =       221 IFLen =        12
 IFFLen=        78 IFFFLn=         0 IEDerv=       221
 LEDerv=       629 IFroze=      1020 ICStrt=     59213
 Dipole        = 2.21422283D-18 2.08628450D-17-1.05521089D+00
 DipoleDeriv   =-3.91401052D-01-2.63505422D-15-5.03249887D-16
                -4.45317940D-17-5.36503303D-01-1.00153851D-16
                -2.46675006D-16-1.29229973D-15-1.15493140D+00
                 2.22224401D-01 1.82387396D-15-3.68261513D-16
                -1.83698563D-16 8.82365400D-01 4.18168272D-15
                -6.65483177D-17 1.27402141D-15 1.22146874D+00
                 8.45883254D-02 5.99759940D-16 1.69824850D-15
                -8.54448256D-17-1.72931048D-01 1.36430865D-01
                 2.85952378D-17 6.87646523D-02-3.32686692D-02
                 8.45883254D-02 4.85687875D-16-1.18449863D-15
                 1.53062104D-16-1.72931048D-01-1.36430865D-01
                 1.42341191D-16-6.87646523D-02-3.32686692D-02
 Polarizability= 1.07799563D+01 6.39510901D-16 1.51718078D+01
                 1.30997925D-16 2.38697950D-15 1.98593851D+01
 PolarDeriv    =-9.12202210D-15 1.05098930D-14-5.40333115D-14
                 3.58297207D+00-2.18271255D-14 2.25818280D-14
                -1.70414233D-14-1.40382300D-15 3.47326216D-14
                -1.11623160D-15 2.59543368D+00 4.09680292D-14
                 3.45197511D+00-6.51591013D-15-2.73582910D+00
                -4.19486127D-15 3.01259512D-14 1.12244610D+01
                 1.70829440D-14 3.40599359D-13 1.10691809D-13
                -2.56469610D+00 3.28290061D-14-3.51272419D-14
                 5.41051704D-14-1.49322348D-14 2.28877383D-12
                -2.96317365D-14 4.70672361D+00 9.06478954D-14
                -2.39076085D+00-7.20388571D-15 9.65820947D+00
                -4.35568483D-15 9.82095926D-13-5.17210559D+00
                 1.09580173D-16 1.25410136D+00-2.97013309D-14
                -5.09137987D-01 5.91821572D-15 5.23389878D-14
                 9.79512880D-01-1.57859074D-15 6.75923339D+00
                -8.44124837D-16-3.65107864D+00 2.02598676D+00
                -5.30607127D-01-1.71468323D-16-3.46119018D+00
                 4.82647234D-16 2.59004359D+00-3.02617770D+00
                -1.22746988D-14-1.25410136D+00-2.04998161D-14
                -5.09137987D-01 9.71895113D-15-1.59533958D-14
                -9.79512880D-01 1.30558308D-14-6.75923339D+00
                 2.86273118D-14-3.65107864D+00-2.02598676D+00
                -5.30607127D-01 9.18311295D-15-3.46119018D+00
                 5.04516380D-15-2.59004359D+00-3.02617770D+00
 HyperPolar    = 7.34944111D-15-4.80264527D-14 6.70311030D-16
                -6.44931260D-13-7.85505701D+00-1.79970954D-15
                -4.39259043D+01 1.83137734D-15 1.40192810D-12
                -3.97539671D+01
 Quadrupole    = 7.53314329D-02 2.12625278D-01-2.87956711D-01
                 1.66259620D-17 9.14316627D-18-7.98093925D-16
 VibFq2-Diag1:  N=     12 IV=           5 MDV=    97588466 NE2=     8132371
 Full mass-weighted force constant matrix:
 Low frequencies ---   -0.2912   -0.0014   -0.0012   -0.0005    0.2096    0.2316
 Low frequencies --- 1338.0799 1372.1915 1652.1529
 OrtVCM:  Ph=1 IPass= 1 DotMx1= 0.00D+00
 OrtVCM:  IS=    1 I=    1 IndO=    1 Dot= 1.00D+00 DotN= 1.00D+00 ElMax1= 7.30D-01 ElMax1N= 7.30D-01
 OrtVCM:  Ph=2 NNew=    0 IAdd=    2 IPass= 1 DotMx2= 0.00D+00
 OrtVCM:  IS=    1 I=    2 IndO=    2 Dot= 1.00D+00 DotN= 1.00D+00 ElMax1= 7.30D-01 ElMax1N= 7.30D-01
 OrtVCM:  Ph=2 NNew=    0 IAdd=    3 IPass= 1 DotMx2= 0.00D+00
 OrtVCM:  IS=    1 I=    3 IndO=    3 Dot= 1.00D+00 DotN= 1.00D+00 ElMax1= 7.30D-01 ElMax1N= 7.30D-01
 OrtVCM:  Ph=2 NNew=    0 IAdd=    4 IPass= 1 DotMx2= 3.08D-33
 OrtVCM:  IS=    1 I=    4 IndO=    4 Dot= 1.00D+00 DotN= 1.00D+00 ElMax1= 7.07D-01 ElMax1N= 7.07D-01
 OrtVCM:  Ph=2 NNew=    0 IAdd=    5 IPass= 1 DotMx2= 4.16D-17
 OrtVCM:  IS=    1 I=    5 IndO=    5 Dot= 1.00D+00 DotN= 1.00D+00 ElMax1= 6.67D-01 ElMax1N= 6.67D-01
 OrtVCM:  Ph=2 NNew=    0 IAdd=    6 IPass= 1 DotMx2= 2.78D-17
 OrtVCM:  IS=    1 I=    6 IndO=    6 Dot= 1.00D+00 DotN= 1.00D+00 ElMax1= 6.25D-01 ElMax1N= 6.25D-01
 OrtVCM:  Ph=1 IPass= 1 DotMx1= 7.30D-01
 OrtVCM:  Ph=1 IPass= 2 DotMx1= 5.55D-17
 OrtVCM:  IS=    1 I=    1 IndO=    7 Dot= 2.17D-02 DotN= 2.17D-02 ElMax1= 8.79D-02 ElMax1N= 8.79D-02
 OrtVCM:  Ph=2 NNew=    0 IAdd=    2 IPass= 1 DotMx2= 2.26D-17
 OrtVCM:  IS=    1 I=    2 IndO=    8 Dot= 7.61D-02 DotN= 7.61D-02 ElMax1= 1.55D-01 ElMax1N= 1.55D-01
 OrtVCM:  Ph=2 NNew=    0 IAdd=    3 IPass= 1 DotMx2= 1.96D-17
 OrtVCM:  IS=    1 I=    3 IndO=    9 Dot= 4.67D-01 DotN= 4.67D-01 ElMax1= 4.67D-01 ElMax1N= 4.67D-01
 OrtVCM:  Ph=2 NNew=    0 IAdd=    4 IPass= 1 DotMx2= 5.16D-01
 OrtVCM:  Ph=2 NNew=    0 IAdd=    4 IPass= 2 DotMx2= 3.07D-17
 OrtVCM:  IS=    1 I=    4 IndO=    0 Dot= 4.12D-33 DotN= 4.12D-33 ElMax1= 3.97D-17 ElMax1N= 3.97D-17
 OrtVCM:  Ph=2 NNew=    0 IAdd=    5 IPass= 1 DotMx2= 4.46D-01
 OrtVCM:  Ph=2 NNew=    0 IAdd=    5 IPass= 2 DotMx2= 2.78D-17
 OrtVCM:  IS=    1 I=    5 IndO=   10 Dot= 1.08D-01 DotN= 1.08D-01 ElMax1= 1.86D-01 ElMax1N= 1.86D-01
 OrtVCM:  Ph=2 NNew=    0 IAdd=    6 IPass= 1 DotMx2= 6.76D-01
 OrtVCM:  Ph=2 NNew=    0 IAdd=    6 IPass= 2 DotMx2= 2.78D-17
 OrtVCM:  IS=    1 I=    6 IndO=   11 Dot= 1.44D-01 DotN= 1.44D-01 ElMax1= 2.48D-01 ElMax1N= 2.48D-01
 SchOr2:  IPass= 1 Test2A= 1.00D-01 IOff=     0 NDo=     6 NNew=     5
 OrtVCM:  Ph=1 IPass= 1 DotMx1= 7.07D-01
 OrtVCM:  Ph=1 IPass= 2 DotMx1= 2.36D-16
 OrtVCM:  IS=    1 I=    1 IndO=    0 Dot= 1.87D-33 DotN= 1.87D-33 ElMax1= 3.06D-17 ElMax1N= 3.06D-17
 SchOr2:  IPass= 1 Test2A= 1.00D-01 IOff=     6 NDo=     1 NNew=     0
 OrtVCM:  Ph=1 IPass= 1 DotMx1= 5.66D-01
 OrtVCM:  Ph=1 IPass= 2 DotMx1= 5.55D-17
 OrtVCM:  IS=    1 I=    1 IndO=   12 Dot= 5.00D-01 DotN= 5.00D-01 ElMax1= 5.00D-01 ElMax1N= 5.00D-01
 SchOr2:  IPass= 1 Test2A= 1.00D-01 IOff=     7 NDo=     1 NNew=     1
 VibFq2-Diag2:  N=      6 IV=           5 MDV=    97588466 NE2=    16264743
 Dipole derivative wrt mode   1:  1.65556D+00  1.02116D-14 -2.08414D-15
 Polarizability derivatives wrt mode          1
                 1             2             3 
      1   0.000000D+00  0.000000D+00 -0.255216D-01
      2   0.000000D+00  0.000000D+00  0.000000D+00
      3  -0.255216D-01  0.000000D+00  0.000000D+00
 Vibrational polarizability contributions from mode   1       0.0411964       0.0000000       0.0000000
 Vibrational hyperpolarizability contributions from mode   1      -0.0000000      -0.0000000      -0.0000000
 IFr=  0 A012= 0.33D-27 0.12D-01 0.20D-02 Act= 0.14D-01 DepolP= 0.75D+00 DepolU= 0.86D+00
 Dipole derivative wrt mode   2:  3.16171D-15 -4.65386D+00 -8.50431D-14
 Polarizability derivatives wrt mode          2
                 1             2             3 
      1   0.000000D+00  0.000000D+00  0.000000D+00
      2   0.000000D+00  0.000000D+00  0.245369D+00
      3   0.000000D+00  0.245369D+00  0.000000D+00
 Vibrational polarizability contributions from mode   2       0.0000000       0.3095502       0.0000000
 Vibrational hyperpolarizability contributions from mode   2       0.0000000       0.0000000      -0.0000000
 IFr=  0 A012= 0.28D-26 0.11D+01 0.18D+00 Act= 0.13D+01 DepolP= 0.75D+00 DepolU= 0.86D+00
 Dipole derivative wrt mode   3:  3.30126D-15 -8.37108D-14  4.28192D+00
 Polarizability derivatives wrt mode          3
                 1             2             3 
      1  -0.587733D-01  0.000000D+00  0.000000D+00
      2   0.000000D+00  0.200667D+00  0.000000D+00
      3   0.000000D+00  0.000000D+00 -0.835065D+00
 Vibrational polarizability contributions from mode   3       0.0000000       0.0000000       0.1807631
 Vibrational hyperpolarizability contributions from mode   3      -0.0000000      -0.0000000      -3.9306539
 IFr=  0 A012= 0.72D+00 0.67D+01 0.11D+01 Act= 0.85D+01 DepolP= 0.44D+00 DepolU= 0.61D+00
 Dipole derivative wrt mode   4:  1.08743D-15  3.04756D-14  1.25462D+01
 Polarizability derivatives wrt mode          4
                 1             2             3 
      1  -0.364718D+00  0.000000D+00  0.000000D+00
      2   0.000000D+00  0.205606D+00  0.000000D+00
      3   0.000000D+00  0.000000D+00 -0.880573D+00
 Vibrational polarizability contributions from mode   4       0.0000000       0.0000000       1.0626951
 Vibrational hyperpolarizability contributions from mode   4      -0.0000000       0.0000000      -8.3163685
 IFr=  0 A012= 0.16D+01 0.86D+01 0.14D+01 Act= 0.12D+02 DepolP= 0.30D+00 DepolU= 0.46D+00
 Dipole derivative wrt mode   5: -4.10200D-15 -5.21805D-13  8.05701D+00
 Polarizability derivatives wrt mode          5
                 1             2             3 
      1   0.390400D+00  0.000000D+00  0.000000D+00
      2   0.000000D+00  0.308829D+01  0.000000D+00
      3   0.000000D+00  0.000000D+00  0.117624D+01
 Vibrational polarizability contributions from mode   5       0.0000000       0.0000000       0.1836113
 Vibrational hyperpolarizability contributions from mode   5      -0.0000000      -0.0000000       2.9887911
 IFr=  0 A012= 0.33D+02 0.10D+03 0.17D+02 Act= 0.15D+03 DepolP= 0.13D+00 DepolU= 0.23D+00
 Dipole derivative wrt mode   6:  1.45908D-15 -1.02311D+01 -3.38229D-13
 Polarizability derivatives wrt mode          6
                 1             2             3 
      1   0.000000D+00  0.000000D+00  0.000000D+00
      2   0.000000D+00  0.000000D+00 -0.178936D+01
      3   0.000000D+00 -0.178936D+01  0.000000D+00
 Vibrational polarizability contributions from mode   6       0.0000000       0.2833572       0.0000000
 Vibrational hyperpolarizability contributions from mode   6      -0.0000000       0.0000000       0.0000000
 IFr=  0 A012= 0.90D-24 0.58D+02 0.96D+01 Act= 0.67D+02 DepolP= 0.75D+00 DepolU= 0.86D+00
 Diagonal vibrational polarizability:
        0.0411964       0.5929073       1.4270695
 Diagonal vibrational hyperpolarizability:
       -0.0000000       0.0000000      -9.2582313
 NorSel:  MapVib=      1      2      3      4      5      6
 Harmonic frequencies (cm**-1), IR intensities (KM/Mole), Raman scattering
 activities (A**4/AMU), depolarization ratios for plane and unpolarized
 incident light, reduced masses (AMU), force constants (mDyne/A),
 and normal coordinates:
                           1         2         3         4         5
                          B1        B2        A1        A1        A1
       Frequencies ---  1338.0799 1372.1915 1652.1529 1996.5300 3084.5423
    Reduced masses ---     1.3698    1.3494    1.0957    7.7126    1.0474
   Force constants ---     1.4450    1.4970    1.7622   18.1135    5.8715
    IR Intensities ---     2.7409   21.6585   18.3348  157.4082   64.9154
  Raman Activities ---     0.0137    1.2643    8.5018   11.6038  148.7742
    Depol. (Plane) ---     0.7500    0.7500    0.4440    0.2969    0.1318
    Depol. (Unpol) ---     0.8571    0.8571    0.6149    0.4579    0.2329
 Coord Atom Element:
   1     1     8          0.04313   0.00000   0.00000  -0.00000   0.00000
   2     1     8         -0.00000   0.08014   0.00000  -0.00000   0.00000
   3     1     8          0.00000   0.00000  -0.07657  -0.42886  -0.00049
   1     2     6         -0.17433  -0.00000  -0.00000   0.00000  -0.00000
   2     2     6          0.00000  -0.14938  -0.00000   0.00000  -0.00000
   3     2     6         -0.00000   0.00000  -0.00046   0.59933   0.06001
   1     3     1          0.69561   0.00000   0.00000  -0.00000   0.00000
   2     3     1         -0.00000   0.25334   0.35287  -0.44860   0.61097
   3     3     1         -0.00000   0.64919   0.61037  -0.16493  -0.35343
   1     4     1          0.69561   0.00000   0.00000  -0.00000   0.00000
   2     4     1          0.00000   0.25334  -0.35287   0.44860  -0.61097
   3     4     1          0.00000  -0.64919   0.61037  -0.16493  -0.35343
                           6
                          B2
       Frequencies ---  3152.9935
    Reduced masses ---     1.1192
   Force constants ---     6.5553
    IR Intensities ---   104.6760
  Raman Activities ---    67.2382
    Depol. (Plane) ---     0.7500
    Depol. (Unpol) ---     0.8571
 Coord Atom Element:
   1     1     8         -0.00000
   2     1     8          0.00020
   3     1     8          0.00000
   1     2     6          0.00000
   2     2     6         -0.10065
   3     2     6         -0.00000
   1     3     1         -0.00000
   2     3     1          0.59757
   3     3     1         -0.37127
   1     4     1         -0.00000
   2     4     1          0.59757
   3     4     1          0.37127
 Harmonic frequencies (cm**-1), IR intensities (KM/Mole), Raman scattering
 activities (A**4/AMU), depolarization ratios for plane and unpolarized
 incident light, reduced masses (AMU), force constants (mDyne/A),
 and normal coordinates:
                      1                      2                      3
                     B1                     B2                     A1
 Frequencies --   1338.0799              1372.1915              1652.1529
 Red. masses --      1.3698                 1.3494                 1.0957
 Frc consts  --      1.4450                 1.4970                 1.7622
 IR Inten    --      2.7409                21.6585                18.3348
 Raman Activ --      0.0137                 1.2643                 8.5018
 Depolar (P) --      0.7500                 0.7500                 0.4440
 Depolar (U) --      0.8571                 0.8571                 0.6149
  Atom  AN      X      Y      Z        X      Y      Z        X      Y      Z
     1   8     0.04  -0.00   0.00     0.00   0.08   0.00     0.00   0.00  -0.08
     2   6    -0.17   0.00  -0.00    -0.00  -0.15   0.00    -0.00  -0.00  -0.00
     3   1     0.70  -0.00  -0.00     0.00   0.25   0.65     0.00   0.35   0.61
     4   1     0.70   0.00   0.00     0.00   0.25  -0.65     0.00  -0.35   0.61
                      4                      5                      6
                     A1                     A1                     B2
 Frequencies --   1996.5300              3084.5423              3152.9935
 Red. masses --      7.7126                 1.0474                 1.1192
 Frc consts  --     18.1135                 5.8715                 6.5553
 IR Inten    --    157.4082                64.9154               104.6760
 Raman Activ --     11.6038               148.7742                67.2382
 Depolar (P) --      0.2969                 0.1318                 0.7500
 Depolar (U) --      0.4579                 0.2329                 0.8571
  Atom  AN      X      Y      Z        X      Y      Z        X      Y      Z
     1   8    -0.00  -0.00  -0.43     0.00   0.00  -0.00    -0.00   0.00   0.00
     2   6     0.00   0.00   0.60    -0.00  -0.00   0.06     0.00  -0.10  -0.00
     3   1    -0.00  -0.45  -0.16     0.00   0.61  -0.35    -0.00   0.60  -0.37
     4   1    -0.00   0.45  -0.16     0.00  -0.61  -0.35    -0.00   0.60   0.37

 -------------------
 - Thermochemistry -
 -------------------
 Temperature   298.150 Kelvin.  Pressure   1.00000 Atm.
 Atom     1 has atomic number  8 and mass  15.99491
 Atom     2 has atomic number  6 and mass  12.00000
 Atom     3 has atomic number  1 and mass   1.00783
 Atom     4 has atomic number  1 and mass   1.00783
 Molecular mass:    30.01056 amu.
 Principal axes and moments of inertia in atomic units:
                           1         2         3
     Eigenvalues --     6.17995  44.39534  50.57529
           X            0.00000   0.00000   1.00000
           Y            0.00000   1.00000   0.00000
           Z            1.00000   0.00000   0.00000
 This molecule is an asymmetric top.
 Rotational symmetry number  2.
 Rotational temperatures (Kelvin)     14.01530     1.95097     1.71257
 Rotational constants (GHZ):         292.03153    40.65159    35.68425
 Zero-point vibrational energy      75343.7 (Joules/Mol)
                                   18.00759 (Kcal/Mol)
 Vibrational temperatures:   1925.20  1974.28  2377.08  2872.56  4437.97
          (Kelvin)           4536.45
 
 Zero-point correction=                           0.028697 (Hartree/Particle)
 Thermal correction to Energy=                    0.031551
 Thermal correction to Enthalpy=                  0.032495
 Thermal correction to Gibbs Free Energy=         0.007748
 Sum of electronic and zero-point Energies=           -113.893686
 Sum of electronic and thermal Energies=              -113.890832
 Sum of electronic and thermal Enthalpies=            -113.889888
 Sum of electronic and thermal Free Energies=         -113.914634
 
                     E (Thermal)             CV                S
                      KCal/Mol        Cal/Mol-Kelvin    Cal/Mol-Kelvin
 Total                   19.798              6.264             52.084
 Electronic               0.000              0.000              0.000
 Translational            0.889              2.981             36.130
 Rotational               0.889              2.981             15.902
 Vibrational             18.021              0.303              0.051
                       Q            Log10(Q)             Ln(Q)
 Total Bot       0.272959D-03         -3.563903         -8.206191
 Total V=0       0.432265D+10          9.635750         22.187135
 Vib (Bot)       0.633557D-13        -13.198215        -30.390012
 Vib (V=0)       0.100332D+01          0.001439          0.003313
 Electronic      0.100000D+01          0.000000          0.000000
 Translational   0.646197D+07          6.810365         15.681445
 Rotational      0.666724D+03          2.823946          6.502376
 Write normal modes, IRwNMS=   765 IRotNM=-1 NVibU=     6.

     ==================================================
      Anharmonic Data: Displacement Vectors Definition
     ==================================================
 Symm:  InNGrp=     InAxis=0 RotPrA=T RotCs=F.
 PtGrp-- Translation vector:    0.000000   -0.000000   -0.136577
 PtGrp-- Principal moments and axes of charge:
         Moments:        6.1799532       44.3953409       50.5752941
         Axes   :         0.000000         0.000000         1.000000
                          0.000000         1.000000         0.000000
                          1.000000         0.000000         0.000000
 The molecule is not linear, ITop=1.
 Principal inertia moments (amu-bohr**2):
 Iaa = 0.617995D+01 Ibb= 0.443953D+02 Icc= 0.505753D+02
 Rotation matrix to Principal Axis frame: 
                 1             2             3 
      1   0.000000D+00  0.000000D+00 -0.100000D+01
      2   0.000000D+00 -0.100000D+01  0.000000D+00
      3  -0.100000D+01  0.000000D+00  0.000000D+00
 PtGrp-- Principal moments and axes of charge:
         Moments:        6.1799532       44.3953409       50.5752941
         Axes   :         0.000000         0.000000         1.000000
                          0.000000         1.000000        -0.000000
                          1.000000        -0.000000        -0.000000
 Coordinates after PtGrp: 
                 1             2             3 
      1   0.752758D-16  0.321291D-15  0.111174D+01
      2  -0.608538D-16 -0.321199D-15 -0.111142D+01
      3  -0.470106D-15  0.175100D+01 -0.220532D+01
      4   0.000000D+00 -0.175100D+01 -0.220532D+01
 Rotation matrix after PtGrp: 
                 1             2             3 
      1   0.100000D+01  0.195472D-15 -0.612323D-16
      2  -0.195472D-15  0.100000D+01 -0.288998D-15
      3   0.612323D-16  0.288998D-15  0.100000D+01

 Framework definition based on atomic masses: C2V 
 
                                                                Title
                                                             IR Spectrum
 
      3 3                                           1             1          1 1                                                     
      1 0                                           9             6          3 3                                                     
      5 8                                           9             5          7 3                                                     
      3 5                                           7             2          2 8                                                     
 
      X X                                           X             X          X X                                                     
      X X                                           X             X          X                                                       
      X X                                           X                        X                                                       
      X X                                           X                                                                                
      X X                                           X                                                                                
      X X                                           X                                                                                
      X X                                           X                                                                                
      X X                                           X                                                                                
      X                                             X                                                                                
      X                                             X                                                                                
      X                                             X                                                                                
      X                                             X                                                                                
      X                                             X                                                                                
                                                    X                                                                                
                                                    X                                                                                
                                                    X                                                                                
                                                    X                                                                                
                                                    X                                                                                
                                                    X                                                                                
                                                    X                                                                                
 
 
                                                                Title
                                                            Raman Spectrum
 
      3 3                                           1             1          1 1                                                     
      1 0                                           9             6          3 3                                                     
      5 8                                           9             5          7 3                                                     
      3 5                                           7             2          2 8                                                     
 
      X X                                           X             X          X                                                       
      X X                                           X                                                                                
      X X                                                                                                                            
      X X                                                                                                                            
      X X                                                                                                                            
      X X                                                                                                                            
      X X                                                                                                                            
      X X                                                                                                                            
      X X                                                                                                                            
        X                                                                                                                            
        X                                                                                                                            
        X                                                                                                                            
        X                                                                                                                            
        X                                                                                                                            
        X                                                                                                                            
        X                                                                                                                            
        X                                                                                                                            
        X                                                                                                                            
        X                                                                                                                            
        X                                                                                                                            
 
 Forces in standard orientation:
 -------------------------------------------------------------------
 Center     Atomic                   Forces (Hartrees/Bohr)
 Number     Number              X              Y              Z
 -------------------------------------------------------------------
      1        8           0.000000000    0.000000000    0.000000161
      2        6           0.000000000    0.000000000   -0.000000095
      3        1          -0.000000000   -0.000000041   -0.000000033
      4        1          -0.000000000    0.000000041   -0.000000033
 -------------------------------------------------------------------
 Cartesian Forces:  Max     0.000000161 RMS     0.000000058
 ***** Axes restored to original set *****
 Rotating derivatives, DoTrsp=F IDiff=-2 LEDeriv=    628 LFDPrp=       0 LDFDPr=       0.
 -------------------------------------------------------------------
 Center     Atomic                   Forces (Hartrees/Bohr)
 Number     Number              X              Y              Z
 -------------------------------------------------------------------
      1        8          -0.000000000   -0.000000000    0.000000161
      2        6          -0.000000000   -0.000000000   -0.000000095
      3        1           0.000000041    0.000000000   -0.000000033
      4        1          -0.000000041    0.000000000   -0.000000033
 -------------------------------------------------------------------
 Cartesian Forces:  Max     0.000000161 RMS     0.000000058
 Force constants in Cartesian coordinates: 
                1             2             3             4             5 
      1  0.867782D-01
      2  0.000000D+00  0.235437D-01
      3  0.000000D+00  0.000000D+00  0.106175D+01
      4 -0.122663D+00  0.000000D+00  0.000000D+00  0.660019D+00
      5  0.000000D+00 -0.713924D-01  0.000000D+00  0.000000D+00  0.216486D+00
      6  0.000000D+00  0.000000D+00 -0.966199D+00  0.000000D+00  0.000000D+00
      7  0.179427D-01  0.000000D+00 -0.179467D-01 -0.268678D+00  0.000000D+00
      8  0.000000D+00  0.239244D-01  0.000000D+00  0.000000D+00 -0.725467D-01
      9 -0.438800D-01  0.000000D+00 -0.477774D-01 -0.899804D-01  0.000000D+00
     10  0.179427D-01  0.000000D+00  0.179467D-01 -0.268678D+00  0.000000D+00
     11  0.000000D+00  0.239244D-01  0.000000D+00  0.000000D+00 -0.725467D-01
     12  0.438800D-01  0.000000D+00 -0.477774D-01  0.899804D-01  0.000000D+00
                6             7             8             9            10 
      6  0.118996D+01
      7 -0.886577D-01  0.271624D+00
      8  0.000000D+00  0.000000D+00  0.243111D-01
      9 -0.111881D+00  0.120232D+00  0.000000D+00  0.149499D+00
     10  0.886577D-01 -0.208892D-01  0.000000D+00  0.136280D-01  0.271624D+00
     11  0.000000D+00  0.000000D+00  0.243112D-01  0.000000D+00  0.000000D+00
     12 -0.111881D+00 -0.136280D-01  0.000000D+00  0.101600D-01 -0.120232D+00
               11            12 
     11  0.243111D-01
     12  0.000000D+00  0.149499D+00
 Cartesian forces in FCRed:
 I=    1 X=   0.000000000000D+00 Y=   0.000000000000D+00 Z=   1.608807451703D-07
 I=    2 X=   0.000000000000D+00 Y=   0.000000000000D+00 Z=  -9.548292823069D-08
 I=    3 X=   4.141913834133D-08 Y=   0.000000000000D+00 Z=  -3.269884496504D-08
 I=    4 X=  -4.141914033973D-08 Y=   0.000000000000D+00 Z=  -3.269884496504D-08
 Cartesian force constants in FCRed: 
                1             2             3             4             5 
      1  0.867782D-01
      2  0.000000D+00  0.235437D-01
      3  0.000000D+00  0.000000D+00  0.106175D+01
      4 -0.122663D+00  0.000000D+00  0.000000D+00  0.660019D+00
      5  0.000000D+00 -0.713924D-01  0.000000D+00  0.000000D+00  0.216486D+00
      6  0.000000D+00  0.000000D+00 -0.966199D+00  0.000000D+00  0.000000D+00
      7  0.179427D-01  0.000000D+00 -0.179467D-01 -0.268678D+00  0.000000D+00
      8  0.000000D+00  0.239244D-01  0.000000D+00  0.000000D+00 -0.725467D-01
      9 -0.438800D-01  0.000000D+00 -0.477774D-01 -0.899804D-01  0.000000D+00
     10  0.179427D-01  0.000000D+00  0.179467D-01 -0.268678D+00  0.000000D+00
     11  0.000000D+00  0.239244D-01  0.000000D+00  0.000000D+00 -0.725467D-01
     12  0.438800D-01  0.000000D+00 -0.477774D-01  0.899804D-01  0.000000D+00
                6             7             8             9            10 
      6  0.118996D+01
      7 -0.886577D-01  0.271624D+00
      8  0.000000D+00  0.000000D+00  0.243111D-01
      9 -0.111881D+00  0.120232D+00  0.000000D+00  0.149499D+00
     10  0.886577D-01 -0.208892D-01  0.000000D+00  0.136280D-01  0.271624D+00
     11  0.000000D+00  0.000000D+00  0.243112D-01  0.000000D+00  0.000000D+00
     12 -0.111881D+00 -0.136280D-01  0.000000D+00  0.101600D-01 -0.120232D+00
               11            12 
     11  0.243111D-01
     12  0.000000D+00  0.149499D+00
 FormGI is forming the generalized inverse of G from B-inverse, IUseBI=4.
 Internal forces: 
                 1 
      1   0.000000D+00
      2   0.000000D+00
      3   0.000000D+00
      4   0.000000D+00
      5   0.000000D+00
      6   0.000000D+00
      7   0.000000D+00
 Internal force constants: 
                1             2             3             4             5 
      1  0.106175D+01
      2  0.405347D-01  0.345394D+00
      3  0.405347D-01  0.562968D-02  0.345394D+00
      4  0.213421D-01  0.447304D-02 -0.133831D-01  0.131177D+00
      5  0.213421D-01 -0.133831D-01  0.447304D-02 -0.832713D-01  0.131177D+00
      6 -0.426842D-01  0.891011D-02  0.891011D-02 -0.479061D-01 -0.479061D-01
      7  0.000000D+00  0.000000D+00  0.000000D+00  0.000000D+00  0.000000D+00
                6             7 
      6  0.958122D-01
      7  0.000000D+00  0.836978D-01
 Force constants in internal coordinates: 
                1             2             3             4             5 
      1  0.106175D+01
      2  0.405347D-01  0.345394D+00
      3  0.405347D-01  0.562968D-02  0.345394D+00
      4  0.213421D-01  0.447304D-02 -0.133831D-01  0.131177D+00
      5  0.213421D-01 -0.133831D-01  0.447304D-02 -0.832713D-01  0.131177D+00
      6 -0.426842D-01  0.891011D-02  0.891011D-02 -0.479061D-01 -0.479061D-01
      7  0.000000D+00  0.000000D+00  0.000000D+00  0.000000D+00  0.000000D+00
                6             7 
      6  0.958122D-01
      7  0.000000D+00  0.836978D-01
 Final forces over variables, Energy=-1.13922382D+02:
 -1.60880713D-07 1.78026753D-08 1.78026760D-08-3.41879592D-08
 -3.41879590D-08 6.83759182D-08 5.37191787D-16
 Leave Link  716 at Tue Jul  9 10:57:59 2024, MaxMem=    97648640 cpu:               5.1 elap:               0.4
 (Enter /cluster/software/Gaussian/g16_B.01/l106.exe)
 NDeriv=      6 NFrqRd=  0 NDerD0=      0 MskFDP=       0 MskDFD=       0 MskDF0=       0
 At 1st pt F.D. properties file   721 does not exist.
 At 1st pt F.D. properties file   722 does not exist.
 D2Numr ... symmetry will not be used.
 Leave Link  106 at Tue Jul  9 10:57:59 2024, MaxMem=    97648640 cpu:               1.4 elap:               0.1
 (Enter /cluster/software/Gaussian/g16_B.01/l301.exe)
 Standard basis: CC-pVQZ (5D, 7F)
 Ernie: Thresh=  0.10000D-02 Tol=  0.10000D-05 Strict=F.
 Ernie:  6 primitive shells out of 90 were deleted.
   170 basis functions,   252 primitive gaussians,   210 cartesian basis functions
     8 alpha electrons        8 beta electrons
       nuclear repulsion energy        31.9541656006 Hartrees.
 IExCor=    0 DFT=F Ex=HF Corr=None ExCW=0 ScaHFX=  1.000000
 ScaDFX=  1.000000  1.000000  1.000000  1.000000 ScalE2=  1.000000  1.000000
 IRadAn=      5 IRanWt=     -1 IRanGd=            0 ICorTp=0 IEmpDi=  4
 NAtoms=    4 NActive=    4 NUniq=    4 SFac= 1.00D+00 NAtFMM=   60 NAOKFM=F Big=F
 Integral buffers will be    131072 words long.
 Raffenetti 1 integral format.
 Two-electron integral symmetry is turned off.
 Leave Link  301 at Tue Jul  9 10:57:59 2024, MaxMem=    97648640 cpu:               0.8 elap:               0.1
 (Enter /cluster/software/Gaussian/g16_B.01/l302.exe)
 NPDir=0 NMtPBC=     1 NCelOv=     1 NCel=       1 NClECP=     1 NCelD=      1
         NCelK=      1 NCelE2=     1 NClLst=     1 CellRange=     0.0.
 One-electron integrals computed using PRISM.
 PrsmSu:  requested number of processors reduced to:   4 ShMem   1 Linda.
 NBasis=   170 RedAO= T EigKep=  2.32D-04  NBF=   170
 NBsUse=   170 1.00D-06 EigRej= -1.00D+00 NBFU=   170
 Leave Link  302 at Tue Jul  9 10:57:59 2024, MaxMem=    97648640 cpu:               2.2 elap:               0.2
 (Enter /cluster/software/Gaussian/g16_B.01/l303.exe)
 DipDrv:  MaxL=1.
 Leave Link  303 at Tue Jul  9 10:57:59 2024, MaxMem=    97648640 cpu:               0.4 elap:               0.1
 (Enter /cluster/software/Gaussian/g16_B.01/l401.exe)
 Initial guess from the checkpoint file:  "inputFull_3q.chk"
 B after Tr=     0.000697    0.000000    0.000000
         Rot=    1.000000   -0.000000    0.000431    0.000000 Ang=   0.05 deg.
 Guess basis will be translated and rotated to current coordinates.
 JPrj=2 DoOrth=T DoCkMO=T.
 Leave Link  401 at Tue Jul  9 10:58:00 2024, MaxMem=    97648640 cpu:               1.8 elap:               0.1
 (Enter /cluster/software/Gaussian/g16_B.01/l502.exe)
 Two-electron integral symmetry not used.
 Closed shell SCF:
 Using DIIS extrapolation, IDIIS=  1040.
 NGot=    97648640 LenX=    97555748 LenY=    97511207
 Requested convergence on RMS density matrix=1.00D-08 within 128 cycles.
 Requested convergence on MAX density matrix=1.00D-06.
 Requested convergence on             energy=1.00D-06.
 No special actions if energy rises.
 Fock matrices will be formed incrementally for  20 cycles.

 Cycle   1  Pass 1  IDiag  1:
 FoFJK:  IHMeth= 1 ICntrl=       0 DoSepK=F KAlg= 0 I1Cent=           0 FoldK=F
 IRaf= 990000000 NMat=       1 IRICut=       1 DoRegI=T DoRafI=F ISym2E= 0 IDoP0=0 IntGTp=1.
 FoFCou: FMM=F IPFlag=           0 FMFlag=      100000 FMFlg1=           0
         NFxFlg=           0 DoJE=F BraDBF=F KetDBF=F FulRan=T
         wScrn=  0.000000 ICntrl=         0 IOpCl=  0 I1Cent=           0 NGrid=           0
         NMat0=    1 NMatS0=      1 NMatT0=    0 NMatD0=    1 NMtDS0=    0 NMtDT0=    0
 Symmetry not used in FoFCou.
 E= -113.922363588991    
 DIIS: error= 2.76D-04 at cycle   1 NSaved=   1.
 NSaved= 1 IEnMin= 1 EnMin= -113.922363588991     IErMin= 1 ErrMin= 2.76D-04
 ErrMax= 2.76D-04  0.00D+00 EMaxC= 1.00D-01 BMatC= 6.55D-06 BMatP= 6.55D-06
 IDIUse=3 WtCom= 9.97D-01 WtEn= 2.76D-03
 Coeff-Com:  0.100D+01
 Coeff-En:   0.100D+01
 Coeff:      0.100D+01
 Gap=     2.582 Goal=   None    Shift=    0.000
 RMSDP=8.09D-06 MaxDP=3.01D-04              OVMax= 7.98D-04

 Cycle   2  Pass 1  IDiag  1:
 RMSU=  8.09D-06    CP:  1.00D+00
 E= -113.922369841699     Delta-E=       -0.000006252707 Rises=F Damp=F
 DIIS: error= 7.29D-05 at cycle   2 NSaved=   2.
 NSaved= 2 IEnMin= 2 EnMin= -113.922369841699     IErMin= 2 ErrMin= 7.29D-05
 ErrMax= 7.29D-05  0.00D+00 EMaxC= 1.00D-01 BMatC= 2.91D-07 BMatP= 6.55D-06
 IDIUse=1 WtCom= 1.00D+00 WtEn= 0.00D+00
 Coeff-Com: -0.189D+00 0.119D+01
 Coeff:     -0.189D+00 0.119D+01
 Gap=     0.556 Goal=   None    Shift=    0.000
 RMSDP=2.78D-06 MaxDP=1.08D-04 DE=-6.25D-06 OVMax= 2.93D-04

 Cycle   3  Pass 1  IDiag  1:
 RMSU=  9.41D-07    CP:  1.00D+00  1.32D+00
 E= -113.922370355347     Delta-E=       -0.000000513648 Rises=F Damp=F
 DIIS: error= 1.37D-05 at cycle   3 NSaved=   3.
 NSaved= 3 IEnMin= 3 EnMin= -113.922370355347     IErMin= 3 ErrMin= 1.37D-05
 ErrMax= 1.37D-05  0.00D+00 EMaxC= 1.00D-01 BMatC= 1.17D-08 BMatP= 2.91D-07
 IDIUse=1 WtCom= 1.00D+00 WtEn= 0.00D+00
 Coeff-Com:  0.320D-01-0.335D+00 0.130D+01
 Coeff:      0.320D-01-0.335D+00 0.130D+01
 Gap=     0.556 Goal=   None    Shift=    0.000
 RMSDP=7.97D-07 MaxDP=2.90D-05 DE=-5.14D-07 OVMax= 7.93D-05

 Cycle   4  Pass 1  IDiag  1:
 RMSU=  1.69D-07    CP:  1.00D+00  1.40D+00  1.50D+00
 E= -113.922370380744     Delta-E=       -0.000000025397 Rises=F Damp=F
 DIIS: error= 2.22D-06 at cycle   4 NSaved=   4.
 NSaved= 4 IEnMin= 4 EnMin= -113.922370380744     IErMin= 4 ErrMin= 2.22D-06
 ErrMax= 2.22D-06  0.00D+00 EMaxC= 1.00D-01 BMatC= 2.18D-10 BMatP= 1.17D-08
 IDIUse=1 WtCom= 1.00D+00 WtEn= 0.00D+00
 Coeff-Com: -0.301D-02 0.452D-01-0.257D+00 0.121D+01
 Coeff:     -0.301D-02 0.452D-01-0.257D+00 0.121D+01
 Gap=     0.556 Goal=   None    Shift=    0.000
 RMSDP=1.34D-07 MaxDP=5.56D-06 DE=-2.54D-08 OVMax= 1.23D-05

 Cycle   5  Pass 1  IDiag  1:
 RMSU=  3.25D-08    CP:  1.00D+00  1.41D+00  1.59D+00  1.43D+00
 E= -113.922370381302     Delta-E=       -0.000000000557 Rises=F Damp=F
 DIIS: error= 4.12D-07 at cycle   5 NSaved=   5.
 NSaved= 5 IEnMin= 5 EnMin= -113.922370381302     IErMin= 5 ErrMin= 4.12D-07
 ErrMax= 4.12D-07  0.00D+00 EMaxC= 1.00D-01 BMatC= 1.58D-11 BMatP= 2.18D-10
 IDIUse=1 WtCom= 1.00D+00 WtEn= 0.00D+00
 Coeff-Com: -0.125D-02 0.134D-01-0.580D-01-0.244D-01 0.107D+01
 Coeff:     -0.125D-02 0.134D-01-0.580D-01-0.244D-01 0.107D+01
 Gap=     0.556 Goal=   None    Shift=    0.000
 RMSDP=3.16D-08 MaxDP=1.30D-06 DE=-5.57D-10 OVMax= 2.79D-06

 Cycle   6  Pass 1  IDiag  1:
 RMSU=  9.85D-09    CP:  1.00D+00  1.41D+00  1.61D+00  1.54D+00  1.33D+00
 E= -113.922370381327     Delta-E=       -0.000000000025 Rises=F Damp=F
 DIIS: error= 1.57D-07 at cycle   6 NSaved=   6.
 NSaved= 6 IEnMin= 6 EnMin= -113.922370381327     IErMin= 6 ErrMin= 1.57D-07
 ErrMax= 1.57D-07  0.00D+00 EMaxC= 1.00D-01 BMatC= 1.59D-12 BMatP= 1.58D-11
 IDIUse=1 WtCom= 1.00D+00 WtEn= 0.00D+00
 Coeff-Com: -0.127D-03 0.541D-03 0.235D-02-0.751D-01 0.215D+00 0.857D+00
 Coeff:     -0.127D-03 0.541D-03 0.235D-02-0.751D-01 0.215D+00 0.857D+00
 Gap=     0.556 Goal=   None    Shift=    0.000
 RMSDP=6.30D-09 MaxDP=2.07D-07 DE=-2.50D-11 OVMax= 7.19D-07

 SCF Done:  E(RHF) =  -113.922370381     A.U. after    6 cycles
            NFock=  6  Conv=0.63D-08     -V/T= 2.0000
 KE= 1.139208353143D+02 PE=-3.325782118768D+02 EE= 7.278084058060D+01
 Leave Link  502 at Tue Jul  9 10:58:05 2024, MaxMem=    97648640 cpu:              79.9 elap:               5.0
 (Enter /cluster/software/Gaussian/g16_B.01/l801.exe)
 Range of M.O.s used for correlation:     1   170
 NBasis=   170 NAE=     8 NBE=     8 NFC=     0 NFV=     0
 NROrb=    170 NOA=     8 NOB=     8 NVA=   162 NVB=   162

 **** Warning!!: The largest alpha MO coefficient is  0.16499473D+02

 Leave Link  801 at Tue Jul  9 10:58:05 2024, MaxMem=    97648640 cpu:               0.3 elap:               0.0
 (Enter /cluster/software/Gaussian/g16_B.01/l1002.exe)
 Minotr:  Closed shell wavefunction.
          Direct CPHF calculation.
          Differentiating once with respect to electric field.
                with respect to dipole field.
          Electric field/nuclear overlap derivatives assumed to be zero.
          Requested convergence is 1.0D-08 RMS, and 1.0D-07 maximum.
          Secondary convergence is 1.0D-12 RMS, and 1.0D-12 maximum.
          NewPWx=F KeepS1=T KeepF1=T KeepIn=T MapXYZ=F SortEE=F KeepMc=T.
 Two-electron integral symmetry not used.
          MDV=      97648640 using IRadAn=       4.
          Solving linear equations simultaneously, MaxMat=     384.
          There are     3 degrees of freedom in the 1st order CPHF.  IDoFFX=0 NUNeed=     3.
      3 vectors produced by pass  0 Test12= 4.32D-14 3.33D-08 XBig12= 5.15D+00 1.48D+00.
 AX will form     3 AO Fock derivatives at one time.
 FoFJK:  IHMeth= 1 ICntrl=       0 DoSepK=F KAlg= 0 I1Cent=           0 FoldK=F
 IRaf= 990000000 NMat=       3 IRICut=       1 DoRegI=T DoRafI=F ISym2E= 0 IDoP0=0 IntGTp=1.
 FoFCou: FMM=F IPFlag=           0 FMFlag=      100000 FMFlg1=           0
         NFxFlg=           0 DoJE=F BraDBF=F KetDBF=F FulRan=T
         wScrn=  0.000000 ICntrl=         0 IOpCl=  0 I1Cent=           0 NGrid=           0
         NMat0=    3 NMatS0=      3 NMatT0=    0 NMatD0=    3 NMtDS0=    0 NMtDT0=    0
 Symmetry not used in FoFCou.
      3 vectors produced by pass  1 Test12= 4.32D-14 3.33D-08 XBig12= 6.93D-01 2.30D-01.
      3 vectors produced by pass  2 Test12= 4.32D-14 3.33D-08 XBig12= 6.15D-02 9.42D-02.
      3 vectors produced by pass  3 Test12= 4.32D-14 3.33D-08 XBig12= 2.34D-03 1.87D-02.
      3 vectors produced by pass  4 Test12= 4.32D-14 3.33D-08 XBig12= 8.85D-05 3.73D-03.
      3 vectors produced by pass  5 Test12= 4.32D-14 3.33D-08 XBig12= 7.78D-06 9.67D-04.
      3 vectors produced by pass  6 Test12= 4.32D-14 3.33D-08 XBig12= 9.06D-08 8.67D-05.
      3 vectors produced by pass  7 Test12= 4.32D-14 3.33D-08 XBig12= 1.14D-09 1.01D-05.
      3 vectors produced by pass  8 Test12= 4.32D-14 3.33D-08 XBig12= 1.06D-11 8.37D-07.
      2 vectors produced by pass  9 Test12= 4.32D-14 3.33D-08 XBig12= 2.01D-13 1.53D-07.
 InvSVY:  IOpt=1 It=  1 EMax= 8.88D-16
 Solved reduced A of dimension    29 with     3 vectors.
 End of Minotr F.D. properties file   721 does not exist.
 End of Minotr F.D. properties file   722 does not exist.
 End of Minotr F.D. properties file   788 does not exist.
 Leave Link 1002 at Tue Jul  9 10:58:15 2024, MaxMem=    97648640 cpu:             167.3 elap:              10.5
 (Enter /cluster/software/Gaussian/g16_B.01/l1101.exe)
 Using compressed storage, NAtomX=     4.
 Will process      5 centers per pass.
 PrsmSu:  requested number of processors reduced to:   2 ShMem   1 Linda.
 PrsmSu:  requested number of processors reduced to:   9 ShMem   1 Linda.
 Leave Link 1101 at Tue Jul  9 10:58:15 2024, MaxMem=    97648640 cpu:               1.5 elap:               0.2
 (Enter /cluster/software/Gaussian/g16_B.01/l1102.exe)
 Symmetrizing basis deriv contribution to polar:
 IMax=3 JMax=2 DiffMx= 0.00D+00
 Leave Link 1102 at Tue Jul  9 10:58:16 2024, MaxMem=    97648640 cpu:               0.4 elap:               0.1
 (Enter /cluster/software/Gaussian/g16_B.01/l1110.exe)
 Forming Gx(P) for the SCF density, NAtomX=     4.
 Integral derivatives from FoFJK, PRISM(SPDF).
 Do as many integral derivatives as possible in FoFJK.
 G2DrvN: MDV=      97648192.
 G2DrvN: will do     3 centers at a time, making    2 passes.
 Estimated number of processors is:   10
 G2DrvN:  IPasSy=1 do centers    0 through    2.
 PxScal for G2LodP:  IOpCl= 0 ISclPx=1 IMOff=     1 NMtTot=     4 NTT=   14535 ScalPx= 2.48D+00
 Calling FoFCou, ICntrl=  3107 FMM=F I1Cent=   0 AccDes= 0.00D+00.
 FoFJK:  IHMeth= 1 ICntrl=    3107 DoSepK=F KAlg= 0 I1Cent=           0 FoldK=F
 IRaf=         0 NMat=       1 IRICut=       1 DoRegI=T DoRafI=F ISym2E= 0 IDoP0=0 IntGTp=1.
 FoFCou: FMM=F IPFlag=           0 FMFlag=      100000 FMFlg1=           0
         NFxFlg=           0 DoJE=F BraDBF=F KetDBF=F FulRan=T
         wScrn=  0.000000 ICntrl=      3107 IOpCl=  0 I1Cent=           0 NGrid=           0
         NMat0=    1 NMatS0=      1 NMatT0=    0 NMatD0=    4 NMtDS0=    3 NMtDT0=    0
 Symmetry not used in FoFCou.
 CoulSu:  requested number of processors reduced to:  10 ShMem   1 Linda.
 G2DrvN:  IPasSy=1 do centers    3 through    4.
 PxScal for G2LodP:  IOpCl= 0 ISclPx=1 IMOff=     1 NMtTot=     4 NTT=   14535 ScalPx= 2.48D+00
 Calling FoFCou, ICntrl=  3107 FMM=F I1Cent=   0 AccDes= 0.00D+00.
 CoulSu:  requested number of processors reduced to:  10 ShMem   1 Linda.
 End of G2Drv F.D. properties file   721 does not exist.
 End of G2Drv F.D. properties file   722 does not exist.
 End of G2Drv F.D. properties file   788 does not exist.
 Leave Link 1110 at Tue Jul  9 10:58:27 2024, MaxMem=    97648640 cpu:             117.9 elap:              11.7
 (Enter /cluster/software/Gaussian/g16_B.01/l1002.exe)
 Minotr:  Closed shell wavefunction.
          IDoAtm=1111
          Direct CPHF calculation.
          Differentiating once with respect to electric field.
                with respect to dipole field.
          Differentiating once with respect to nuclear coordinates.
          Requested convergence is 1.0D-08 RMS, and 1.0D-07 maximum.
          Secondary convergence is 1.0D-12 RMS, and 1.0D-12 maximum.
          NewPWx=T KeepS1=F KeepF1=F KeepIn=T MapXYZ=F SortEE=F KeepMc=T.
 Two-electron integral symmetry not used.
          MDV=      97648640 using IRadAn=       4.
          Solving linear equations simultaneously, MaxMat=     384.
 FoF2E skips out because all densities are zero.
 FoFJK:  IHMeth= 1 ICntrl=       0 DoSepK=F KAlg= 0 I1Cent=           0 FoldK=F
 IRaf= 990000000 NMat=       4 IRICut=       1 DoRegI=T DoRafI=F ISym2E= 0 IDoP0=0 IntGTp=1.
 FoFCou: FMM=F IPFlag=           0 FMFlag=      100000 FMFlg1=           0
         NFxFlg=           0 DoJE=F BraDBF=F KetDBF=F FulRan=T
         wScrn=  0.000000 ICntrl=         0 IOpCl=  0 I1Cent=           0 NGrid=           0
         NMat0=    4 NMatS0=      4 NMatT0=    0 NMatD0=    4 NMtDS0=    0 NMtDT0=    0
 Symmetry not used in FoFCou.
          There are    15 degrees of freedom in the 1st order CPHF.  IDoFFX=5 NUNeed=    15.
 Will reuse    3 saved solutions.
      9 vectors produced by pass  0 Test12= 8.64D-15 6.67D-09 XBig12= 6.15D-02 9.01D-02.
 AX will form     3 AO Fock derivatives at one time.
      9 vectors produced by pass  1 Test12= 8.64D-15 6.67D-09 XBig12= 1.03D-02 4.70D-02.
      9 vectors produced by pass  2 Test12= 8.64D-15 6.67D-09 XBig12= 2.24D-04 5.73D-03.
      9 vectors produced by pass  3 Test12= 8.64D-15 6.67D-09 XBig12= 2.19D-06 4.61D-04.
      9 vectors produced by pass  4 Test12= 8.64D-15 6.67D-09 XBig12= 2.42D-08 5.70D-05.
      9 vectors produced by pass  5 Test12= 8.64D-15 6.67D-09 XBig12= 2.16D-10 5.38D-06.
      9 vectors produced by pass  6 Test12= 8.64D-15 6.67D-09 XBig12= 2.74D-12 6.43D-07.
      5 vectors produced by pass  7 Test12= 8.64D-15 6.67D-09 XBig12= 1.84D-14 2.87D-08.
 InvSVY:  IOpt=1 It=  1 EMax= 6.66D-16
 Solved reduced A of dimension    68 with     9 vectors.
 FullF1:  Do perturbations      1 to       3.
 Isotropic polarizability for W=    0.000000       15.27 Bohr**3.
 FullF1:  Do perturbations      1 to       3.
 FullF1:  Do perturbations      4 to       6.
 End of Minotr F.D. properties file   721 does not exist.
 End of Minotr F.D. properties file   722 does not exist.
 End of Minotr F.D. properties file   788 does not exist.
 Leave Link 1002 at Tue Jul  9 10:59:01 2024, MaxMem=    97648640 cpu:             531.9 elap:              33.4
 (Enter /cluster/software/Gaussian/g16_B.01/l601.exe)
 Copying SCF densities to generalized density rwf, IOpCl= 0 IROHF=0.

 **********************************************************************

            Population analysis using the SCF Density.

 **********************************************************************

 Alpha  occ. eigenvalues --  -20.57226 -11.33173  -1.42421  -0.86841  -0.70271
 Alpha  occ. eigenvalues --   -0.65996  -0.54896  -0.43961
 Alpha virt. eigenvalues --    0.11673   0.12255   0.17620   0.21810   0.33657
 Alpha virt. eigenvalues --    0.34458   0.34504   0.46804   0.47939   0.54055
 Alpha virt. eigenvalues --    0.54405   0.62955   0.65270   0.67606   0.74462
 Alpha virt. eigenvalues --    0.75028   0.81711   0.87008   0.90413   0.95864
 Alpha virt. eigenvalues --    1.02610   1.07916   1.12120   1.14180   1.21810
 Alpha virt. eigenvalues --    1.33987   1.46419   1.47114   1.50862   1.54563
 Alpha virt. eigenvalues --    1.62906   1.63395   1.73484   1.78690   1.87726
 Alpha virt. eigenvalues --    1.92409   2.02299   2.04144   2.04883   2.07391
 Alpha virt. eigenvalues --    2.10715   2.13885   2.28996   2.36588   2.37911
 Alpha virt. eigenvalues --    2.38035   2.48061   2.58154   2.61879   2.66602
 Alpha virt. eigenvalues --    2.66616   2.78948   2.81338   2.87625   2.90690
 Alpha virt. eigenvalues --    3.09708   3.10117   3.20081   3.22009   3.42789
 Alpha virt. eigenvalues --    3.48821   3.58069   3.62592   3.67686   3.70681
 Alpha virt. eigenvalues --    3.72486   3.75016   3.89483   4.05009   4.05763
 Alpha virt. eigenvalues --    4.13275   4.33364   4.38206   4.39994   4.58158
 Alpha virt. eigenvalues --    4.61763   4.70779   4.73182   5.05644   5.07212
 Alpha virt. eigenvalues --    5.38050   5.42051   5.51080   5.53865   5.67955
 Alpha virt. eigenvalues --    5.72636   5.84263   6.01748   6.03754   6.10899
 Alpha virt. eigenvalues --    6.20347   6.26286   6.26850   6.28036   6.34183
 Alpha virt. eigenvalues --    6.36735   6.41116   6.49762   6.63452   6.74719
 Alpha virt. eigenvalues --    6.76398   6.78650   6.92697   7.01850   7.22516
 Alpha virt. eigenvalues --    7.47478   7.58698   7.71545   7.71851   7.75133
 Alpha virt. eigenvalues --    7.81778   7.85063   7.87311   7.96848   8.04590
 Alpha virt. eigenvalues --    8.06879   8.28130   8.29959   8.46841   8.50219
 Alpha virt. eigenvalues --    8.53833   8.59303   8.77035   8.87580   8.89686
 Alpha virt. eigenvalues --    8.98279   9.29847   9.35277   9.37689   9.45119
 Alpha virt. eigenvalues --    9.59888   9.67119   9.93348  10.16247  10.27348
 Alpha virt. eigenvalues --   10.30027  10.36786  10.57297  10.63450  10.72086
 Alpha virt. eigenvalues --   10.75436  10.95053  11.12222  11.26009  11.42196
 Alpha virt. eigenvalues --   11.59851  11.61563  11.62201  11.84607  11.99988
 Alpha virt. eigenvalues --   12.23587  12.37551  12.59599  12.76619  12.91892
 Alpha virt. eigenvalues --   12.99051  13.37304  13.93088  14.47263  14.68499
 Alpha virt. eigenvalues --   25.94884  42.81371
          Condensed to atoms (all electrons):
               1          2          3          4
     1  O    7.842611   0.684742  -0.080914  -0.080914
     2  C    0.684742   4.198747   0.394112   0.394112
     3  H   -0.080914   0.394112   0.817333  -0.149149
     4  H   -0.080914   0.394112  -0.149149   0.817333
 Mulliken charges:
               1
     1  O   -0.365525
     2  C    0.328287
     3  H    0.018619
     4  H    0.018619
 Sum of Mulliken charges =  -0.00000
 Mulliken charges with hydrogens summed into heavy atoms:
               1
     1  O   -0.365525
     2  C    0.365525
 APT charges:
               1
     1  O   -0.694264
     2  C    0.775336
     3  H   -0.040536
     4  H   -0.040536
 Sum of APT charges =  -0.00000
 APT charges with hydrogens summed into heavy atoms:
               1
     1  O   -0.694264
     2  C    0.694264
 Electronic spatial extent (au):  <R**2>=             58.9480
 Charge=             -0.0000 electrons
 Dipole moment (field-independent basis, Debye):
    X=              0.0025    Y=              0.0000    Z=             -2.6820  Tot=              2.6820
 Quadrupole moment (field-independent basis, Debye-Ang):
   XX=            -11.5949   YY=            -11.4105   ZZ=            -12.0837
   XY=              0.0000   XZ=             -0.0051   YZ=             -0.0000
 Traceless Quadrupole moment (field-independent basis, Debye-Ang):
   XX=              0.1014   YY=              0.2859   ZZ=             -0.3873
   XY=              0.0000   XZ=             -0.0051   YZ=             -0.0000
 Octapole moment (field-independent basis, Debye-Ang**2):
  XXX=             -0.0104  YYY=              0.0000  ZZZ=              0.2376  XYY=              0.0098
  XXY=              0.0000  XXZ=              0.4549  XZZ=              0.0085  YZZ=              0.0000
  YYZ=             -0.5956  XYZ=             -0.0000
 Hexadecapole moment (field-independent basis, Debye-Ang**3):
 XXXX=            -10.0960 YYYY=            -17.3102 ZZZZ=            -43.4328 XXXY=              0.0000
 XXXZ=              0.0185 YYYX=              0.0000 YYYZ=             -0.0000 ZZZX=              0.0006
 ZZZY=             -0.0000 XXYY=             -4.9162 XXZZ=             -8.8513 YYZZ=             -9.6970
 XXYZ=             -0.0000 YYXZ=             -0.0101 ZZXY=              0.0000
 N-N= 3.195416560059D+01 E-N=-3.325782062771D+02  KE= 1.139208353143D+02
  Exact polarizability:  10.780  -0.000  15.172  -0.002   0.000  19.860
 Approx polarizability:  10.437  -0.000  12.368   0.010   0.000  17.349
 No NMR shielding tensors so no spin-rotation constants.
 Leave Link  601 at Tue Jul  9 10:59:01 2024, MaxMem=    97648640 cpu:               2.6 elap:               0.2
 (Enter /cluster/software/Gaussian/g16_B.01/l701.exe)
 SCFChk:  SCF convergence  6.30D-09 required  1.00D-08
 ... and contract with generalized density number  0.
 Compute integral second derivatives.
 Entering OneElI...
 Calculate overlap and kinetic energy integrals
    NBasis = 210  MinDer = 2  MaxDer = 2
 Requested accuracy = 0.1000D-12
 PrsmSu:  requested number of processors reduced to:   1 ShMem   1 Linda.
 PrmmSu-InSpLW:  IPartL=    0 NPrtUS=    1 NPrtUL=    1 DoSpLW=F IThBeg=    0 IThEnd=    0 NThAct=    1.
 PrSmSu:  IncTry=   512 NBBP=           1275 NTPThr=   100 NPartT=    1 Incr=          12 LDynOK=F GPUOK=F.
 PrsmSu:  NPrtUS=   1 ThrOK=F IAlg=2 LenDen=           0 ISkipM=0 DoSpLW=F IThBeg=    0 IThEnd=    0.
 Prism:   IPart=     0 DynPar=F LinDyn=F Incr=          12.
 PRISM was handed    97371836 working-precision words and  1275 shell-pairs
 IPart=  0 NShTot=        1275 NBatch=          77 AvBLen=        16.6
 PrSmSu:  NxtVal=             13.
 Entering OneElI...
 Calculate potential energy integrals
    NBasis = 210  MinDer = 2  MaxDer = 2
 Requested accuracy = 0.1000D-12
 PrsmSu:  requested number of processors reduced to:   4 ShMem   1 Linda.
 PrmmSu-InSpLW:  IPartL=    0 NPrtUS=    4 NPrtUL=    1 DoSpLW=F IThBeg=    0 IThEnd=    3 NThAct=    4.
 PrSmSu:  IncTry=   512 NBBP=           5092 NTPThr=   100 NPartT=    4 Incr=          12 LDynOK=F GPUOK=F.
 PrsmSu:  NPrtUS=   4 ThrOK=T IAlg=2 LenDen=           0 ISkipM=0 DoSpLW=F IThBeg=    0 IThEnd=    3.
 Prism:   IPart=     0 DynPar=F LinDyn=F Incr=          12.
 PRISM was handed    24334029 working-precision words and  1273 shell-pairs
 PRISM was handed    24334029 working-precision words and  1273 shell-pairs
 PRISM was handed    24334029 working-precision words and  1273 shell-pairs
 PRISM was handed    24334029 working-precision words and  1273 shell-pairs
 IPart=  2 NShTot=        1236 NBatch=         309 AvBLen=         4.0
 IPart=  0 NShTot=        1332 NBatch=         333 AvBLen=         4.0
 IPart=  3 NShTot=        1224 NBatch=         306 AvBLen=         4.0
 IPart=  1 NShTot=        1300 NBatch=         325 AvBLen=         4.0
 PrSmSu:  NxtVal=             49.
 Polarizability after L701:
                1             2             3 
      1  0.107805D+02
      2  0.000000D+00  0.151725D+02
      3 -0.172189D-02  0.000000D+00  0.198598D+02
 Dipole Derivatives after L701:
                 1             2             3             4             5 
      1  -0.391369D+00  0.000000D+00  0.320019D-02  0.222187D+00  0.000000D+00
      2   0.000000D+00 -0.536492D+00  0.000000D+00  0.000000D+00  0.882380D+00
      3   0.208127D-03  0.000000D+00 -0.115493D+01 -0.610820D-02  0.000000D+00
                 6             7             8             9            10 
      1  -0.404610D-02  0.845909D-01  0.243581D-03  0.422954D-03  0.845909D-01
      2   0.000000D+00 -0.221159D-02 -0.172944D+00  0.687677D-01  0.221159D-02
      3   0.122144D+01  0.295004D-02  0.136424D+00 -0.332560D-01  0.295004D-02
                11            12 
      1  -0.243581D-03  0.422954D-03
      2  -0.172944D+00 -0.687677D-01
      3  -0.136424D+00 -0.332560D-01
 Hessian after L701:
                1             2             3             4             5 
      1  0.130809D+02
      2  0.000000D+00  0.106043D+02
      3 -0.272195D-01  0.000000D+00 -0.881308D+00
      4 -0.132177D+02  0.000000D+00  0.311847D-01  0.180324D+02
      5  0.000000D+00 -0.117298D+02  0.000000D+00  0.000000D+00  0.142958D+02
      6  0.252525D-01  0.000000D+00  0.140040D+01 -0.724900D-02  0.000000D+00
      7  0.684027D-01  0.248292D-02 -0.198262D-02 -0.240735D+01  0.143306D-01
      8  0.599371D-03  0.562751D+00 -0.276400D+00  0.162983D-01 -0.128298D+01
      9  0.983513D-03 -0.317839D+00 -0.259545D+00 -0.119679D-01 -0.901995D+00
     10  0.684027D-01 -0.248292D-02 -0.198262D-02 -0.240735D+01 -0.143306D-01
     11 -0.599371D-03  0.562751D+00  0.276400D+00 -0.162983D-01 -0.128298D+01
     12  0.983513D-03  0.317839D+00 -0.259545D+00 -0.119679D-01  0.901995D+00
                6             7             8             9            10 
      6  0.241226D+01
      7 -0.900173D-02  0.205375D+01
      8 -0.795877D+00 -0.168556D-01  0.126186D+01
      9 -0.190633D+01  0.110768D-01  0.114606D+01  0.185075D+01
     10 -0.900173D-02  0.285197D+00 -0.420677D-04 -0.924271D-04  0.205375D+01
     11  0.795877D+00  0.420677D-04 -0.541630D+00  0.737782D-01  0.168556D-01
     12 -0.190633D+01 -0.924271D-04 -0.737782D-01  0.315122D+00  0.110768D-01
               11            12 
     11  0.126186D+01
     12 -0.114606D+01  0.185075D+01
 Leave Link  701 at Tue Jul  9 10:59:01 2024, MaxMem=    97648640 cpu:               1.0 elap:               0.3
 (Enter /cluster/software/Gaussian/g16_B.01/l702.exe)
 L702 exits ... SP integral derivatives will be done elsewhere.
 Leave Link  702 at Tue Jul  9 10:59:01 2024, MaxMem=    97648640 cpu:               0.3 elap:               0.0
 (Enter /cluster/software/Gaussian/g16_B.01/l703.exe)
 Integral derivatives from FoFJK, PRISM(SPDF).
 Compute integral second derivatives, UseDBF=F ICtDFT=           0.
 ICntrl=    100127.
 Calling FoFJK, ICntrl=    100127 FMM=F ISym2X=0 I1Cent= 0 IOpClX= 0 NMat=1 NMatS=1 NMatT=0.
 FoFJK:  IHMeth= 1 ICntrl=  100127 DoSepK=F KAlg= 0 I1Cent=           0 FoldK=F
 IRaf=         0 NMat=       1 IRICut=       1 DoRegI=T DoRafI=F ISym2E= 0 IDoP0=0 IntGTp=1.
 FoFCou: FMM=F IPFlag=           0 FMFlag=      100000 FMFlg1=         800
         NFxFlg=           0 DoJE=F BraDBF=F KetDBF=F FulRan=T
         wScrn=  0.000000 ICntrl=    100127 IOpCl=  0 I1Cent=           0 NGrid=           0
         NMat0=    1 NMatS0=      1 NMatT0=    0 NMatD0=    1 NMtDS0=    0 NMtDT0=    0
 Symmetry not used in FoFCou.
 FoFCou:  KetSym=F NOpSet=  1 NOpAb=1 NOp=  1.
 FoFCou:  CnvScl= 1.00D+00 Thresh= 1.00D-12 IAcrcy=      10.
 PrismS was handed    97482780 working-precision words and  1275 shell-pairs
 FoFCou: LinMIO=F DoNuc=F BraDBF=F KetDBF=F HaveP=T PDBF=F HaveZ=T HaveW=F
         NIJTC =      15 NIJTAt=       0 NIJTCD=       0 NIJTT =      15
         IJTBeg=       1 IJTEnd=      15 KLTBeg=       1 KLTEnd=      15
         IPTBeg=       1 IPTEnd=      15 IPTBCv=       1 IPTECv=      15
         IZTBeg=       1 IZTEnd=      15 IZTBCv=       1 IZTECv=      15
         IWTBeg=      16 IWTEnd=      15 IWTBCv=      16 IWTECv=      15
         INTBeg=       1 INTEnd=       0 IFTBCv=       1 IFTECv=      15
 NCel replicated for PrismC:     1
 CoulSu:  requested number of processors reduced to:   4 ShMem   1 Linda.
 CoulSu-InSpLW:  IPartL=    0 NPrtUS=    4 NPrtUL=    1 DoSpLW=F IThBeg=    0 IThEnd=    3 NThAct=    4.
 CoulSu:  IncTry=  1024 NBBP=         813450 NTPThr=   100 NPartT=    4 Incr=        1024 LDynOK=F GPUOK=F.
 CoulSu:  NPrtUS=   4 ThrOK=T IAlg=2 LenDen=           0 LWGrdD=           0 DoCopy=F ISkipM=0
          DoSpLW=F IThBeg=    0 IThEnd=    3.
 Enter PrismC:  IPart=  0 JobTyp=22 DoJE=F Cont=F.
 PrismC:  IPart=     0 DynPar=T LinDyn=F Incr=        1024 UseFst=F UseS4=T ISplat=2.
 PrismC was handed    24349301 working-precision words and  1275 shell-pairs
 Enter PrismC:  IPart=  1 JobTyp=22 DoJE=F Cont=F.
 Enter PrismC:  IPart=  2 JobTyp=22 DoJE=F Cont=F.
 PrismC:  IPart=     1 DynPar=T LinDyn=F Incr=        1024 UseFst=F UseS4=T ISplat=2.
 PrismC was handed    24349301 working-precision words and  1275 shell-pairs
 Enter PrismC:  IPart=  3 JobTyp=22 DoJE=F Cont=F.
 PrismC:  IPart=     2 DynPar=T LinDyn=F Incr=        1024 UseFst=F UseS4=T ISplat=2.
 PrismC was handed    24349301 working-precision words and  1275 shell-pairs
 PrismC:  IPart=     3 DynPar=T LinDyn=F Incr=        1024 UseFst=F UseS4=T ISplat=2.
 PrismC was handed    24349301 working-precision words and  1275 shell-pairs
 IPart=  3 NShTot=      196175 NShNF=      196175 NShFF=           0 MinMC=       3
           NShCPU=      196175 NBCPU=        7611 AvBCPU=        25.8
           NShGPU=           0 NBGPU=           0 AvBGPU=         0.0
 IPart=  1 NShTot=      198215 NShNF=      198215 NShFF=           0 MinMC=       3
           NShCPU=      198215 NBCPU=        7721 AvBCPU=        25.7
           NShGPU=           0 NBGPU=           0 AvBGPU=         0.0
 IPart=  0 NShTot=      208375 NShNF=      208375 NShFF=           0 MinMC=       3
           NShCPU=      208375 NBCPU=        7453 AvBCPU=        28.0
           NShGPU=           0 NBGPU=           0 AvBGPU=         0.0
 IPart=  2 NShTot=      195890 NShNF=      195890 NShFF=           0 MinMC=       3
           NShCPU=      195890 NBCPU=        7173 AvBCPU=        27.3
           NShGPU=           0 NBGPU=           0 AvBGPU=         0.0
 CoulSu:  NxtVal=         861185 LenVP=       24349302 MinMC=       3.
 Polarizability after L703:
                1             2             3 
      1  0.107805D+02
      2  0.000000D+00  0.151725D+02
      3 -0.172189D-02  0.000000D+00  0.198598D+02
 Dipole Derivatives after L703:
                 1             2             3             4             5 
      1  -0.391369D+00  0.000000D+00  0.320019D-02  0.222187D+00  0.000000D+00
      2   0.000000D+00 -0.536492D+00  0.000000D+00  0.000000D+00  0.882380D+00
      3   0.208127D-03  0.000000D+00 -0.115493D+01 -0.610820D-02  0.000000D+00
                 6             7             8             9            10 
      1  -0.404610D-02  0.845909D-01  0.243581D-03  0.422954D-03  0.845909D-01
      2   0.000000D+00 -0.221159D-02 -0.172944D+00  0.687677D-01  0.221159D-02
      3   0.122144D+01  0.295004D-02  0.136424D+00 -0.332560D-01  0.295004D-02
                11            12 
      1  -0.243581D-03  0.422954D-03
      2  -0.172944D+00 -0.687677D-01
      3  -0.136424D+00 -0.332560D-01
 Hessian after L703:
                1             2             3             4             5 
      1  0.235442D-01
      2  0.000000D+00  0.867765D-01
      3  0.680097D-03  0.000000D+00  0.106174D+01
      4 -0.713876D-01  0.000000D+00 -0.571341D-03  0.216500D+00
      5  0.000000D+00 -0.122659D+00  0.000000D+00  0.000000D+00  0.659923D+00
      6 -0.970685D-03  0.000000D+00 -0.966178D+00 -0.938295D-03  0.000000D+00
      7  0.239217D-01  0.153977D-04 -0.543776D-04 -0.725560D-01 -0.162436D-02
      8 -0.985302D-04  0.179414D-01  0.179494D-01 -0.101215D-02 -0.268632D+00
      9  0.145294D-03  0.438796D-01 -0.477784D-01  0.754818D-03  0.899513D-01
     10  0.239217D-01 -0.153977D-04 -0.543776D-04 -0.725560D-01  0.162436D-02
     11  0.985302D-04  0.179414D-01 -0.179494D-01  0.101215D-02 -0.268632D+00
     12  0.145294D-03 -0.438796D-01 -0.477784D-01  0.754818D-03 -0.899513D-01
                6             7             8             9            10 
      6  0.118991D+01
      7  0.954490D-03  0.243257D-01
      8  0.886288D-01  0.135982D-02  0.271583D+00
      9 -0.111865D+00 -0.942854D-03 -0.120205D+00  0.149484D+00
     10  0.954490D-03  0.243085D-01 -0.249143D-03  0.427421D-04  0.243257D-01
     11 -0.886288D-01  0.249143D-03 -0.208923D-01 -0.136263D-01 -0.135982D-02
     12 -0.111865D+00  0.427421D-04  0.136263D-01  0.101595D-01 -0.942854D-03
               11            12 
     11  0.271583D+00
     12  0.120205D+00  0.149484D+00
 Leave Link  703 at Tue Jul  9 10:59:33 2024, MaxMem=    97648640 cpu:             128.5 elap:              31.7
 (Enter /cluster/software/Gaussian/g16_B.01/l716.exe)
 FrcOut:
 IF    =        44 IFX   =        56 IFXYZ =        68
 IFFX  =        80 IFFFX =       158 IFLen =        12
 IFFLen=        78 IFFFLn=         0 IEDerv=       158
 LEDerv=       629 IFroze=       957 ICStrt=     59150
 Dipole        = 1.00196775D-03 2.36767717D-14-1.05516846D+00
 DipoleDeriv   =-3.91368826D-01-2.38528213D-15 2.08127473D-04
                -6.93039185D-16-5.36492034D-01-3.13466799D-15
                 3.20018828D-03-3.44159583D-14-1.15493030D+00
                 2.22186960D-01 3.61486311D-15-6.10820470D-03
                 1.29343021D-15 8.82379957D-01-1.03645186D-14
                -4.04609646D-03 4.49457892D-14 1.22144223D+00
                 8.45909331D-02-2.21159307D-03 2.95003861D-03
                 2.43581242D-04-1.72943962D-01 1.36423756D-01
                 4.22954092D-04 6.87677053D-02-3.32559626D-02
                 8.45909331D-02 2.21159307D-03 2.95003861D-03
                -2.43581242D-04-1.72943962D-01-1.36423756D-01
                 4.22954092D-04-6.87677053D-02-3.32559626D-02
 Polarizability= 1.07804513D+01-5.28669371D-15 1.51724917D+01
                -1.72189113D-03 1.29324819D-13 1.98598079D+01
 PolarDeriv    = 2.84140209D-02 3.84949859D-13-4.39402113D-04
                 3.58308519D+00 1.19726804D-13 9.25785715D-03
                 2.81075975D-13 7.46505794D-03 1.27452712D-12
                -5.65626012D-14 2.59547023D+00 4.74883286D-13
                 3.45176590D+00 5.97291142D-15-2.73629008D+00
                 4.84399320D-02-6.84974183D-13 1.12249596D+01
                -9.18587367D-02-2.25287640D-12-9.63404886D-02
                -2.56444289D+00-9.40875806D-13-6.66113081D-02
                -2.55508888D-12-6.39795242D-02-1.67954565D-11
                 1.80692230D-13 4.70683619D+00 5.89015804D-12
                -2.39044339D+00-3.21604245D-14 9.65879357D+00
                -8.85765537D-02-2.75087805D-13-5.17261814D+00
                 3.17223579D-02 1.25438852D+00 4.83899454D-02
                -5.09321149D-01-2.61954830D-02 2.86767255D-02
                 9.79590514D-01 2.82572331D-02 6.75951893D+00
                -1.89931489D-02-3.65115321D+00 2.02577702D+00
                -5.30661256D-01-1.24223711D-02-3.46125175D+00
                 2.00683109D-02 2.59019107D+00-3.02617073D+00
                 3.17223579D-02-1.25438852D+00 4.83899454D-02
                -5.09321149D-01 2.61954830D-02 2.86767255D-02
                -9.79590514D-01 2.82572331D-02-6.75951893D+00
                 1.89931489D-02-3.65115321D+00-2.02577702D+00
                -5.30661256D-01 1.24223711D-02-3.46125175D+00
                 2.00683109D-02-2.59019107D+00-3.02617073D+00
 HyperPolar    =-1.72187008D-01-1.87143852D-14 1.98902818D-01
                -6.97875976D-12-7.85663260D+00 1.19319901D-13
                -4.39302948D+01 8.61596115D-02-4.30792379D-12
                -3.97533739D+01
 Quadrupole    = 7.54239280D-02 2.12558209D-01-2.87982137D-01
                 3.83567357D-15-3.76300164D-03-1.56917891D-14
 -------------------------------------------------------------------
 Center     Atomic                   Forces (Hartrees/Bohr)
 Number     Number              X              Y              Z
 -------------------------------------------------------------------
      1        8          -0.000754762    0.000000000   -0.000000694
      2        6           0.002288771   -0.000000000   -0.000011375
      3        1          -0.000767005   -0.000007561    0.000006035
      4        1          -0.000767005    0.000007561    0.000006035
 -------------------------------------------------------------------
 Cartesian Forces:  Max     0.002288771 RMS     0.000762947
 Force constants in Cartesian coordinates: 
                1             2             3             4             5 
      1  0.235442D-01
      2  0.000000D+00  0.867765D-01
      3  0.680097D-03  0.000000D+00  0.106174D+01
      4 -0.713876D-01  0.000000D+00 -0.571341D-03  0.216500D+00
      5  0.000000D+00 -0.122659D+00  0.000000D+00  0.000000D+00  0.659923D+00
      6 -0.970685D-03  0.000000D+00 -0.966178D+00 -0.938295D-03  0.000000D+00
      7  0.239217D-01  0.153977D-04 -0.543776D-04 -0.725560D-01 -0.162436D-02
      8 -0.985302D-04  0.179414D-01  0.179494D-01 -0.101215D-02 -0.268632D+00
      9  0.145294D-03  0.438796D-01 -0.477784D-01  0.754818D-03  0.899513D-01
     10  0.239217D-01 -0.153977D-04 -0.543776D-04 -0.725560D-01  0.162436D-02
     11  0.985302D-04  0.179414D-01 -0.179494D-01  0.101215D-02 -0.268632D+00
     12  0.145294D-03 -0.438796D-01 -0.477784D-01  0.754818D-03 -0.899513D-01
                6             7             8             9            10 
      6  0.118991D+01
      7  0.954490D-03  0.243257D-01
      8  0.886288D-01  0.135982D-02  0.271583D+00
      9 -0.111865D+00 -0.942854D-03 -0.120205D+00  0.149484D+00
     10  0.954490D-03  0.243085D-01 -0.249143D-03  0.427421D-04  0.243257D-01
     11 -0.886288D-01  0.249143D-03 -0.208923D-01 -0.136263D-01 -0.135982D-02
     12 -0.111865D+00  0.427421D-04  0.136263D-01  0.101595D-01 -0.942854D-03
               11            12 
     11  0.271583D+00
     12  0.120205D+00  0.149484D+00
 Final forces over variables, Energy=-1.13922370D+02:
 -1.60880713D-07 1.78026753D-08 1.78026760D-08-3.41879592D-08
 -3.41879590D-08 6.83759182D-08 5.37191787D-16
 Leave Link  716 at Tue Jul  9 10:59:33 2024, MaxMem=    97648640 cpu:               0.4 elap:               0.1
 (Enter /cluster/software/Gaussian/g16_B.01/l106.exe)
 NDeriv=      6 NFrqRd=  0 NDerD0=      0 MskFDP=       0 MskDFD=       0 MskDF0=       0
 Re-enter D2Numr:  normal mode   1 step-up   number 1
 Leave Link  106 at Tue Jul  9 10:59:33 2024, MaxMem=    97648640 cpu:               2.5 elap:               0.2
 (Enter /cluster/software/Gaussian/g16_B.01/l301.exe)
 Standard basis: CC-pVQZ (5D, 7F)
 Ernie: Thresh=  0.10000D-02 Tol=  0.10000D-05 Strict=F.
 Ernie:  6 primitive shells out of 90 were deleted.
   170 basis functions,   252 primitive gaussians,   210 cartesian basis functions
     8 alpha electrons        8 beta electrons
       nuclear repulsion energy        31.9541656006 Hartrees.
 IExCor=    0 DFT=F Ex=HF Corr=None ExCW=0 ScaHFX=  1.000000
 ScaDFX=  1.000000  1.000000  1.000000  1.000000 ScalE2=  1.000000  1.000000
 IRadAn=      5 IRanWt=     -1 IRanGd=            0 ICorTp=0 IEmpDi=  4
 NAtoms=    4 NActive=    4 NUniq=    4 SFac= 1.00D+00 NAtFMM=   60 NAOKFM=F Big=F
 Integral buffers will be    131072 words long.
 Raffenetti 1 integral format.
 Two-electron integral symmetry is turned off.
 Leave Link  301 at Tue Jul  9 10:59:33 2024, MaxMem=    97648640 cpu:               0.8 elap:               0.1
 (Enter /cluster/software/Gaussian/g16_B.01/l302.exe)
 NPDir=0 NMtPBC=     1 NCelOv=     1 NCel=       1 NClECP=     1 NCelD=      1
         NCelK=      1 NCelE2=     1 NClLst=     1 CellRange=     0.0.
 One-electron integrals computed using PRISM.
 PrsmSu:  requested number of processors reduced to:   4 ShMem   1 Linda.
 NBasis=   170 RedAO= T EigKep=  2.32D-04  NBF=   170
 NBsUse=   170 1.00D-06 EigRej= -1.00D+00 NBFU=   170
 Leave Link  302 at Tue Jul  9 10:59:33 2024, MaxMem=    97648640 cpu:               2.2 elap:               0.2
 (Enter /cluster/software/Gaussian/g16_B.01/l303.exe)
 DipDrv:  MaxL=1.
 Leave Link  303 at Tue Jul  9 10:59:34 2024, MaxMem=    97648640 cpu:               0.4 elap:               0.1
 (Enter /cluster/software/Gaussian/g16_B.01/l401.exe)
 Initial guess from the checkpoint file:  "inputFull_3q.chk"
 B after Tr=    -0.000697   -0.000000   -0.000000
         Rot=    1.000000    0.000000   -0.000431    0.000000 Ang=  -0.05 deg.
 Guess basis will be translated and rotated to current coordinates.
 JPrj=2 DoOrth=T DoCkMO=T.
 Leave Link  401 at Tue Jul  9 10:59:34 2024, MaxMem=    97648640 cpu:               1.5 elap:               0.1
 (Enter /cluster/software/Gaussian/g16_B.01/l502.exe)
 Two-electron integral symmetry not used.
 Closed shell SCF:
 Using DIIS extrapolation, IDIIS=  1040.
 NGot=    97648640 LenX=    97555748 LenY=    97511207
 Requested convergence on RMS density matrix=1.00D-08 within 128 cycles.
 Requested convergence on MAX density matrix=1.00D-06.
 Requested convergence on             energy=1.00D-06.
 No special actions if energy rises.
 Fock matrices will be formed incrementally for  20 cycles.

 Cycle   1  Pass 1  IDiag  1:
 FoFJK:  IHMeth= 1 ICntrl=       0 DoSepK=F KAlg= 0 I1Cent=           0 FoldK=F
 IRaf= 990000000 NMat=       1 IRICut=       1 DoRegI=T DoRafI=F ISym2E= 0 IDoP0=0 IntGTp=1.
 FoFCou: FMM=F IPFlag=           0 FMFlag=      100000 FMFlg1=           0
         NFxFlg=           0 DoJE=F BraDBF=F KetDBF=F FulRan=T
         wScrn=  0.000000 ICntrl=         0 IOpCl=  0 I1Cent=           0 NGrid=           0
         NMat0=    1 NMatS0=      1 NMatT0=    0 NMatD0=    1 NMtDS0=    0 NMtDT0=    0
 Symmetry not used in FoFCou.
 E= -113.922363588991    
 DIIS: error= 2.76D-04 at cycle   1 NSaved=   1.
 NSaved= 1 IEnMin= 1 EnMin= -113.922363588991     IErMin= 1 ErrMin= 2.76D-04
 ErrMax= 2.76D-04  0.00D+00 EMaxC= 1.00D-01 BMatC= 6.55D-06 BMatP= 6.55D-06
 IDIUse=3 WtCom= 9.97D-01 WtEn= 2.76D-03
 Coeff-Com:  0.100D+01
 Coeff-En:   0.100D+01
 Coeff:      0.100D+01
 Gap=     2.582 Goal=   None    Shift=    0.000
 RMSDP=8.09D-06 MaxDP=3.01D-04              OVMax= 7.98D-04

 Cycle   2  Pass 1  IDiag  1:
 RMSU=  8.09D-06    CP:  1.00D+00
 E= -113.922369841699     Delta-E=       -0.000006252707 Rises=F Damp=F
 DIIS: error= 7.29D-05 at cycle   2 NSaved=   2.
 NSaved= 2 IEnMin= 2 EnMin= -113.922369841699     IErMin= 2 ErrMin= 7.29D-05
 ErrMax= 7.29D-05  0.00D+00 EMaxC= 1.00D-01 BMatC= 2.91D-07 BMatP= 6.55D-06
 IDIUse=1 WtCom= 1.00D+00 WtEn= 0.00D+00
 Coeff-Com: -0.189D+00 0.119D+01
 Coeff:     -0.189D+00 0.119D+01
 Gap=     0.556 Goal=   None    Shift=    0.000
 RMSDP=2.78D-06 MaxDP=1.08D-04 DE=-6.25D-06 OVMax= 2.93D-04

 Cycle   3  Pass 1  IDiag  1:
 RMSU=  9.41D-07    CP:  1.00D+00  1.32D+00
 E= -113.922370355347     Delta-E=       -0.000000513648 Rises=F Damp=F
 DIIS: error= 1.37D-05 at cycle   3 NSaved=   3.
 NSaved= 3 IEnMin= 3 EnMin= -113.922370355347     IErMin= 3 ErrMin= 1.37D-05
 ErrMax= 1.37D-05  0.00D+00 EMaxC= 1.00D-01 BMatC= 1.17D-08 BMatP= 2.91D-07
 IDIUse=1 WtCom= 1.00D+00 WtEn= 0.00D+00
 Coeff-Com:  0.320D-01-0.335D+00 0.130D+01
 Coeff:      0.320D-01-0.335D+00 0.130D+01
 Gap=     0.556 Goal=   None    Shift=    0.000
 RMSDP=7.97D-07 MaxDP=2.90D-05 DE=-5.14D-07 OVMax= 7.93D-05

 Cycle   4  Pass 1  IDiag  1:
 RMSU=  1.69D-07    CP:  1.00D+00  1.40D+00  1.50D+00
 E= -113.922370380744     Delta-E=       -0.000000025397 Rises=F Damp=F
 DIIS: error= 2.22D-06 at cycle   4 NSaved=   4.
 NSaved= 4 IEnMin= 4 EnMin= -113.922370380744     IErMin= 4 ErrMin= 2.22D-06
 ErrMax= 2.22D-06  0.00D+00 EMaxC= 1.00D-01 BMatC= 2.18D-10 BMatP= 1.17D-08
 IDIUse=1 WtCom= 1.00D+00 WtEn= 0.00D+00
 Coeff-Com: -0.301D-02 0.452D-01-0.257D+00 0.121D+01
 Coeff:     -0.301D-02 0.452D-01-0.257D+00 0.121D+01
 Gap=     0.556 Goal=   None    Shift=    0.000
 RMSDP=1.34D-07 MaxDP=5.56D-06 DE=-2.54D-08 OVMax= 1.23D-05

 Cycle   5  Pass 1  IDiag  1:
 RMSU=  3.25D-08    CP:  1.00D+00  1.41D+00  1.59D+00  1.43D+00
 E= -113.922370381301     Delta-E=       -0.000000000557 Rises=F Damp=F
 DIIS: error= 4.12D-07 at cycle   5 NSaved=   5.
 NSaved= 5 IEnMin= 5 EnMin= -113.922370381301     IErMin= 5 ErrMin= 4.12D-07
 ErrMax= 4.12D-07  0.00D+00 EMaxC= 1.00D-01 BMatC= 1.58D-11 BMatP= 2.18D-10
 IDIUse=1 WtCom= 1.00D+00 WtEn= 0.00D+00
 Coeff-Com: -0.125D-02 0.134D-01-0.580D-01-0.244D-01 0.107D+01
 Coeff:     -0.125D-02 0.134D-01-0.580D-01-0.244D-01 0.107D+01
 Gap=     0.556 Goal=   None    Shift=    0.000
 RMSDP=3.16D-08 MaxDP=1.30D-06 DE=-5.57D-10 OVMax= 2.79D-06

 Cycle   6  Pass 1  IDiag  1:
 RMSU=  9.85D-09    CP:  1.00D+00  1.41D+00  1.61D+00  1.54D+00  1.33D+00
 E= -113.922370381326     Delta-E=       -0.000000000025 Rises=F Damp=F
 DIIS: error= 1.57D-07 at cycle   6 NSaved=   6.
 NSaved= 6 IEnMin= 6 EnMin= -113.922370381326     IErMin= 6 ErrMin= 1.57D-07
 ErrMax= 1.57D-07  0.00D+00 EMaxC= 1.00D-01 BMatC= 1.59D-12 BMatP= 1.58D-11
 IDIUse=1 WtCom= 1.00D+00 WtEn= 0.00D+00
 Coeff-Com: -0.127D-03 0.541D-03 0.235D-02-0.751D-01 0.215D+00 0.857D+00
 Coeff:     -0.127D-03 0.541D-03 0.235D-02-0.751D-01 0.215D+00 0.857D+00
 Gap=     0.556 Goal=   None    Shift=    0.000
 RMSDP=6.30D-09 MaxDP=2.07D-07 DE=-2.53D-11 OVMax= 7.19D-07

 SCF Done:  E(RHF) =  -113.922370381     A.U. after    6 cycles
            NFock=  6  Conv=0.63D-08     -V/T= 2.0000
 KE= 1.139208353143D+02 PE=-3.325782118768D+02 EE= 7.278084058060D+01
 Leave Link  502 at Tue Jul  9 10:59:39 2024, MaxMem=    97648640 cpu:              81.1 elap:               5.1
 (Enter /cluster/software/Gaussian/g16_B.01/l801.exe)
 Range of M.O.s used for correlation:     1   170
 NBasis=   170 NAE=     8 NBE=     8 NFC=     0 NFV=     0
 NROrb=    170 NOA=     8 NOB=     8 NVA=   162 NVB=   162

 **** Warning!!: The largest alpha MO coefficient is  0.16499473D+02

 Leave Link  801 at Tue Jul  9 10:59:39 2024, MaxMem=    97648640 cpu:               0.3 elap:               0.0
 (Enter /cluster/software/Gaussian/g16_B.01/l1002.exe)
 Minotr:  Closed shell wavefunction.
          Direct CPHF calculation.
          Differentiating once with respect to electric field.
                with respect to dipole field.
          Electric field/nuclear overlap derivatives assumed to be zero.
          Requested convergence is 1.0D-08 RMS, and 1.0D-07 maximum.
          Secondary convergence is 1.0D-12 RMS, and 1.0D-12 maximum.
          NewPWx=F KeepS1=T KeepF1=T KeepIn=T MapXYZ=F SortEE=F KeepMc=T.
 Two-electron integral symmetry not used.
          MDV=      97648640 using IRadAn=       4.
          Solving linear equations simultaneously, MaxMat=     384.
          There are     3 degrees of freedom in the 1st order CPHF.  IDoFFX=0 NUNeed=     3.
      3 vectors produced by pass  0 Test12= 4.32D-14 3.33D-08 XBig12= 5.15D+00 1.48D+00.
 AX will form     3 AO Fock derivatives at one time.
 FoFJK:  IHMeth= 1 ICntrl=       0 DoSepK=F KAlg= 0 I1Cent=           0 FoldK=F
 IRaf= 990000000 NMat=       3 IRICut=       1 DoRegI=T DoRafI=F ISym2E= 0 IDoP0=0 IntGTp=1.
 FoFCou: FMM=F IPFlag=           0 FMFlag=      100000 FMFlg1=           0
         NFxFlg=           0 DoJE=F BraDBF=F KetDBF=F FulRan=T
         wScrn=  0.000000 ICntrl=         0 IOpCl=  0 I1Cent=           0 NGrid=           0
         NMat0=    3 NMatS0=      3 NMatT0=    0 NMatD0=    3 NMtDS0=    0 NMtDT0=    0
 Symmetry not used in FoFCou.
      3 vectors produced by pass  1 Test12= 4.32D-14 3.33D-08 XBig12= 6.93D-01 2.30D-01.
      3 vectors produced by pass  2 Test12= 4.32D-14 3.33D-08 XBig12= 6.15D-02 9.42D-02.
      3 vectors produced by pass  3 Test12= 4.32D-14 3.33D-08 XBig12= 2.34D-03 1.87D-02.
      3 vectors produced by pass  4 Test12= 4.32D-14 3.33D-08 XBig12= 8.85D-05 3.73D-03.
      3 vectors produced by pass  5 Test12= 4.32D-14 3.33D-08 XBig12= 7.78D-06 9.67D-04.
      3 vectors produced by pass  6 Test12= 4.32D-14 3.33D-08 XBig12= 9.06D-08 8.67D-05.
      3 vectors produced by pass  7 Test12= 4.32D-14 3.33D-08 XBig12= 1.14D-09 1.01D-05.
      3 vectors produced by pass  8 Test12= 4.32D-14 3.33D-08 XBig12= 1.06D-11 8.37D-07.
      2 vectors produced by pass  9 Test12= 4.32D-14 3.33D-08 XBig12= 2.01D-13 1.53D-07.
 InvSVY:  IOpt=1 It=  1 EMax= 4.44D-16
 Solved reduced A of dimension    29 with     3 vectors.
 End of Minotr F.D. properties file   721 does not exist.
 End of Minotr F.D. properties file   722 does not exist.
 End of Minotr F.D. properties file   788 does not exist.
 Leave Link 1002 at Tue Jul  9 10:59:50 2024, MaxMem=    97648640 cpu:             170.5 elap:              10.7
 (Enter /cluster/software/Gaussian/g16_B.01/l1101.exe)
 Using compressed storage, NAtomX=     4.
 Will process      5 centers per pass.
 PrsmSu:  requested number of processors reduced to:   2 ShMem   1 Linda.
 PrsmSu:  requested number of processors reduced to:   9 ShMem   1 Linda.
 Leave Link 1101 at Tue Jul  9 10:59:50 2024, MaxMem=    97648640 cpu:               1.5 elap:               0.2
 (Enter /cluster/software/Gaussian/g16_B.01/l1102.exe)
 Symmetrizing basis deriv contribution to polar:
 IMax=3 JMax=2 DiffMx= 0.00D+00
 Leave Link 1102 at Tue Jul  9 10:59:50 2024, MaxMem=    97648640 cpu:               0.4 elap:               0.1
 (Enter /cluster/software/Gaussian/g16_B.01/l1110.exe)
 Forming Gx(P) for the SCF density, NAtomX=     4.
 Integral derivatives from FoFJK, PRISM(SPDF).
 Do as many integral derivatives as possible in FoFJK.
 G2DrvN: MDV=      97648192.
 G2DrvN: will do     3 centers at a time, making    2 passes.
 Estimated number of processors is:   10
 G2DrvN:  IPasSy=1 do centers    0 through    2.
 PxScal for G2LodP:  IOpCl= 0 ISclPx=1 IMOff=     1 NMtTot=     4 NTT=   14535 ScalPx= 2.48D+00
 Calling FoFCou, ICntrl=  3107 FMM=F I1Cent=   0 AccDes= 0.00D+00.
 FoFJK:  IHMeth= 1 ICntrl=    3107 DoSepK=F KAlg= 0 I1Cent=           0 FoldK=F
 IRaf=         0 NMat=       1 IRICut=       1 DoRegI=T DoRafI=F ISym2E= 0 IDoP0=0 IntGTp=1.
 FoFCou: FMM=F IPFlag=           0 FMFlag=      100000 FMFlg1=           0
         NFxFlg=           0 DoJE=F BraDBF=F KetDBF=F FulRan=T
         wScrn=  0.000000 ICntrl=      3107 IOpCl=  0 I1Cent=           0 NGrid=           0
         NMat0=    1 NMatS0=      1 NMatT0=    0 NMatD0=    4 NMtDS0=    3 NMtDT0=    0
 Symmetry not used in FoFCou.
 CoulSu:  requested number of processors reduced to:  10 ShMem   1 Linda.
 G2DrvN:  IPasSy=1 do centers    3 through    4.
 PxScal for G2LodP:  IOpCl= 0 ISclPx=1 IMOff=     1 NMtTot=     4 NTT=   14535 ScalPx= 2.48D+00
 Calling FoFCou, ICntrl=  3107 FMM=F I1Cent=   0 AccDes= 0.00D+00.
 CoulSu:  requested number of processors reduced to:  10 ShMem   1 Linda.
 End of G2Drv F.D. properties file   721 does not exist.
 End of G2Drv F.D. properties file   722 does not exist.
 End of G2Drv F.D. properties file   788 does not exist.
 Leave Link 1110 at Tue Jul  9 11:00:01 2024, MaxMem=    97648640 cpu:             114.0 elap:              11.3
 (Enter /cluster/software/Gaussian/g16_B.01/l1002.exe)
 Minotr:  Closed shell wavefunction.
          IDoAtm=1111
          Direct CPHF calculation.
          Differentiating once with respect to electric field.
                with respect to dipole field.
          Differentiating once with respect to nuclear coordinates.
          Requested convergence is 1.0D-08 RMS, and 1.0D-07 maximum.
          Secondary convergence is 1.0D-12 RMS, and 1.0D-12 maximum.
          NewPWx=T KeepS1=F KeepF1=F KeepIn=T MapXYZ=F SortEE=F KeepMc=T.
 Two-electron integral symmetry not used.
          MDV=      97648640 using IRadAn=       4.
          Solving linear equations simultaneously, MaxMat=     384.
 FoF2E skips out because all densities are zero.
 FoFJK:  IHMeth= 1 ICntrl=       0 DoSepK=F KAlg= 0 I1Cent=           0 FoldK=F
 IRaf= 990000000 NMat=       4 IRICut=       1 DoRegI=T DoRafI=F ISym2E= 0 IDoP0=0 IntGTp=1.
 FoFCou: FMM=F IPFlag=           0 FMFlag=      100000 FMFlg1=           0
         NFxFlg=           0 DoJE=F BraDBF=F KetDBF=F FulRan=T
         wScrn=  0.000000 ICntrl=         0 IOpCl=  0 I1Cent=           0 NGrid=           0
         NMat0=    4 NMatS0=      4 NMatT0=    0 NMatD0=    4 NMtDS0=    0 NMtDT0=    0
 Symmetry not used in FoFCou.
          There are    15 degrees of freedom in the 1st order CPHF.  IDoFFX=5 NUNeed=    15.
 Will reuse    3 saved solutions.
      9 vectors produced by pass  0 Test12= 8.64D-15 6.67D-09 XBig12= 6.15D-02 9.01D-02.
 AX will form     3 AO Fock derivatives at one time.
      9 vectors produced by pass  1 Test12= 8.64D-15 6.67D-09 XBig12= 1.03D-02 4.70D-02.
      9 vectors produced by pass  2 Test12= 8.64D-15 6.67D-09 XBig12= 2.24D-04 5.73D-03.
      9 vectors produced by pass  3 Test12= 8.64D-15 6.67D-09 XBig12= 2.19D-06 4.61D-04.
      9 vectors produced by pass  4 Test12= 8.64D-15 6.67D-09 XBig12= 2.42D-08 5.70D-05.
      9 vectors produced by pass  5 Test12= 8.64D-15 6.67D-09 XBig12= 2.16D-10 5.38D-06.
      9 vectors produced by pass  6 Test12= 8.64D-15 6.67D-09 XBig12= 2.74D-12 6.43D-07.
      5 vectors produced by pass  7 Test12= 8.64D-15 6.67D-09 XBig12= 1.84D-14 2.87D-08.
 InvSVY:  IOpt=1 It=  1 EMax= 8.88D-16
 Solved reduced A of dimension    68 with     9 vectors.
 FullF1:  Do perturbations      1 to       3.
 Isotropic polarizability for W=    0.000000       15.27 Bohr**3.
 FullF1:  Do perturbations      1 to       3.
 FullF1:  Do perturbations      4 to       6.
 End of Minotr F.D. properties file   721 does not exist.
 End of Minotr F.D. properties file   722 does not exist.
 End of Minotr F.D. properties file   788 does not exist.
 Leave Link 1002 at Tue Jul  9 11:00:35 2024, MaxMem=    97648640 cpu:             542.9 elap:              34.1
 (Enter /cluster/software/Gaussian/g16_B.01/l601.exe)
 Copying SCF densities to generalized density rwf, IOpCl= 0 IROHF=0.

 **********************************************************************

            Population analysis using the SCF Density.

 **********************************************************************

 Alpha  occ. eigenvalues --  -20.57226 -11.33173  -1.42421  -0.86841  -0.70271
 Alpha  occ. eigenvalues --   -0.65996  -0.54896  -0.43961
 Alpha virt. eigenvalues --    0.11673   0.12255   0.17620   0.21810   0.33657
 Alpha virt. eigenvalues --    0.34458   0.34504   0.46804   0.47939   0.54055
 Alpha virt. eigenvalues --    0.54405   0.62955   0.65270   0.67606   0.74462
 Alpha virt. eigenvalues --    0.75028   0.81711   0.87008   0.90413   0.95864
 Alpha virt. eigenvalues --    1.02610   1.07916   1.12120   1.14180   1.21810
 Alpha virt. eigenvalues --    1.33987   1.46419   1.47114   1.50862   1.54563
 Alpha virt. eigenvalues --    1.62906   1.63395   1.73484   1.78690   1.87726
 Alpha virt. eigenvalues --    1.92409   2.02299   2.04144   2.04883   2.07391
 Alpha virt. eigenvalues --    2.10715   2.13885   2.28996   2.36588   2.37911
 Alpha virt. eigenvalues --    2.38035   2.48061   2.58154   2.61879   2.66602
 Alpha virt. eigenvalues --    2.66616   2.78948   2.81338   2.87625   2.90690
 Alpha virt. eigenvalues --    3.09708   3.10117   3.20081   3.22009   3.42789
 Alpha virt. eigenvalues --    3.48821   3.58069   3.62592   3.67686   3.70681
 Alpha virt. eigenvalues --    3.72486   3.75016   3.89483   4.05009   4.05763
 Alpha virt. eigenvalues --    4.13275   4.33364   4.38206   4.39994   4.58158
 Alpha virt. eigenvalues --    4.61763   4.70779   4.73182   5.05644   5.07212
 Alpha virt. eigenvalues --    5.38050   5.42051   5.51080   5.53865   5.67955
 Alpha virt. eigenvalues --    5.72636   5.84263   6.01748   6.03754   6.10899
 Alpha virt. eigenvalues --    6.20347   6.26286   6.26850   6.28036   6.34183
 Alpha virt. eigenvalues --    6.36735   6.41116   6.49762   6.63452   6.74719
 Alpha virt. eigenvalues --    6.76398   6.78650   6.92697   7.01850   7.22516
 Alpha virt. eigenvalues --    7.47478   7.58698   7.71545   7.71851   7.75133
 Alpha virt. eigenvalues --    7.81778   7.85063   7.87311   7.96848   8.04590
 Alpha virt. eigenvalues --    8.06879   8.28130   8.29959   8.46841   8.50219
 Alpha virt. eigenvalues --    8.53833   8.59303   8.77035   8.87580   8.89686
 Alpha virt. eigenvalues --    8.98279   9.29847   9.35277   9.37689   9.45119
 Alpha virt. eigenvalues --    9.59888   9.67119   9.93348  10.16247  10.27348
 Alpha virt. eigenvalues --   10.30027  10.36786  10.57297  10.63450  10.72086
 Alpha virt. eigenvalues --   10.75436  10.95053  11.12222  11.26009  11.42196
 Alpha virt. eigenvalues --   11.59851  11.61563  11.62201  11.84607  11.99988
 Alpha virt. eigenvalues --   12.23587  12.37551  12.59599  12.76619  12.91892
 Alpha virt. eigenvalues --   12.99051  13.37304  13.93088  14.47263  14.68499
 Alpha virt. eigenvalues --   25.94884  42.81371
          Condensed to atoms (all electrons):
               1          2          3          4
     1  O    7.842611   0.684742  -0.080914  -0.080914
     2  C    0.684742   4.198747   0.394112   0.394112
     3  H   -0.080914   0.394112   0.817333  -0.149149
     4  H   -0.080914   0.394112  -0.149149   0.817333
 Mulliken charges:
               1
     1  O   -0.365525
     2  C    0.328287
     3  H    0.018619
     4  H    0.018619
 Sum of Mulliken charges =  -0.00000
 Mulliken charges with hydrogens summed into heavy atoms:
               1
     1  O   -0.365525
     2  C    0.365525
 APT charges:
               1
     1  O   -0.694264
     2  C    0.775336
     3  H   -0.040536
     4  H   -0.040536
 Sum of APT charges =  -0.00000
 APT charges with hydrogens summed into heavy atoms:
               1
     1  O   -0.694264
     2  C    0.694264
 Electronic spatial extent (au):  <R**2>=             58.9480
 Charge=             -0.0000 electrons
 Dipole moment (field-independent basis, Debye):
    X=             -0.0025    Y=              0.0000    Z=             -2.6820  Tot=              2.6820
 Quadrupole moment (field-independent basis, Debye-Ang):
   XX=            -11.5949   YY=            -11.4105   ZZ=            -12.0837
   XY=              0.0000   XZ=              0.0051   YZ=              0.0000
 Traceless Quadrupole moment (field-independent basis, Debye-Ang):
   XX=              0.1014   YY=              0.2859   ZZ=             -0.3873
   XY=              0.0000   XZ=              0.0051   YZ=              0.0000
 Octapole moment (field-independent basis, Debye-Ang**2):
  XXX=              0.0104  YYY=              0.0000  ZZZ=              0.2376  XYY=             -0.0098
  XXY=              0.0000  XXZ=              0.4549  XZZ=             -0.0085  YZZ=              0.0000
  YYZ=             -0.5956  XYZ=             -0.0000
 Hexadecapole moment (field-independent basis, Debye-Ang**3):
 XXXX=            -10.0960 YYYY=            -17.3102 ZZZZ=            -43.4328 XXXY=             -0.0000
 XXXZ=             -0.0185 YYYX=              0.0000 YYYZ=             -0.0000 ZZZX=             -0.0006
 ZZZY=              0.0000 XXYY=             -4.9162 XXZZ=             -8.8513 YYZZ=             -9.6970
 XXYZ=             -0.0000 YYXZ=              0.0101 ZZXY=              0.0000
 N-N= 3.195416560059D+01 E-N=-3.325782062771D+02  KE= 1.139208353143D+02
  Exact polarizability:  10.780   0.000  15.172   0.002  -0.000  19.860
 Approx polarizability:  10.437   0.000  12.368  -0.010   0.000  17.349
 No NMR shielding tensors so no spin-rotation constants.
 Leave Link  601 at Tue Jul  9 11:00:36 2024, MaxMem=    97648640 cpu:               2.6 elap:               0.2
 (Enter /cluster/software/Gaussian/g16_B.01/l701.exe)
 SCFChk:  SCF convergence  6.30D-09 required  1.00D-08
 ... and contract with generalized density number  0.
 Compute integral second derivatives.
 Entering OneElI...
 Calculate overlap and kinetic energy integrals
    NBasis = 210  MinDer = 2  MaxDer = 2
 Requested accuracy = 0.1000D-12
 PrsmSu:  requested number of processors reduced to:   1 ShMem   1 Linda.
 PrmmSu-InSpLW:  IPartL=    0 NPrtUS=    1 NPrtUL=    1 DoSpLW=F IThBeg=    0 IThEnd=    0 NThAct=    1.
 PrSmSu:  IncTry=   512 NBBP=           1275 NTPThr=   100 NPartT=    1 Incr=          12 LDynOK=F GPUOK=F.
 PrsmSu:  NPrtUS=   1 ThrOK=F IAlg=2 LenDen=           0 ISkipM=0 DoSpLW=F IThBeg=    0 IThEnd=    0.
 Prism:   IPart=     0 DynPar=F LinDyn=F Incr=          12.
 PRISM was handed    97371836 working-precision words and  1275 shell-pairs
 IPart=  0 NShTot=        1275 NBatch=          77 AvBLen=        16.6
 PrSmSu:  NxtVal=             13.
 Entering OneElI...
 Calculate potential energy integrals
    NBasis = 210  MinDer = 2  MaxDer = 2
 Requested accuracy = 0.1000D-12
 PrsmSu:  requested number of processors reduced to:   4 ShMem   1 Linda.
 PrmmSu-InSpLW:  IPartL=    0 NPrtUS=    4 NPrtUL=    1 DoSpLW=F IThBeg=    0 IThEnd=    3 NThAct=    4.
 PrSmSu:  IncTry=   512 NBBP=           5092 NTPThr=   100 NPartT=    4 Incr=          12 LDynOK=F GPUOK=F.
 PrsmSu:  NPrtUS=   4 ThrOK=T IAlg=2 LenDen=           0 ISkipM=0 DoSpLW=F IThBeg=    0 IThEnd=    3.
 Prism:   IPart=     0 DynPar=F LinDyn=F Incr=          12.
 PRISM was handed    24334029 working-precision words and  1273 shell-pairs
 PRISM was handed    24334029 working-precision words and  1273 shell-pairs
 PRISM was handed    24334029 working-precision words and  1273 shell-pairs
 PRISM was handed    24334029 working-precision words and  1273 shell-pairs
 IPart=  2 NShTot=        1236 NBatch=         309 AvBLen=         4.0
 IPart=  0 NShTot=        1332 NBatch=         333 AvBLen=         4.0
 IPart=  3 NShTot=        1224 NBatch=         306 AvBLen=         4.0
 IPart=  1 NShTot=        1300 NBatch=         325 AvBLen=         4.0
 PrSmSu:  NxtVal=             49.
 Polarizability after L701:
                1             2             3 
      1  0.107805D+02
      2  0.000000D+00  0.151725D+02
      3  0.172189D-02  0.000000D+00  0.198598D+02
 Dipole Derivatives after L701:
                 1             2             3             4             5 
      1  -0.391369D+00  0.000000D+00 -0.320019D-02  0.222187D+00  0.000000D+00
      2   0.000000D+00 -0.536492D+00  0.000000D+00  0.000000D+00  0.882380D+00
      3  -0.208127D-03  0.000000D+00 -0.115493D+01  0.610820D-02  0.000000D+00
                 6             7             8             9            10 
      1   0.404610D-02  0.845909D-01 -0.243581D-03 -0.422954D-03  0.845909D-01
      2   0.000000D+00  0.221159D-02 -0.172944D+00  0.687677D-01 -0.221159D-02
      3   0.122144D+01 -0.295004D-02  0.136424D+00 -0.332560D-01 -0.295004D-02
                11            12 
      1   0.243581D-03 -0.422954D-03
      2  -0.172944D+00 -0.687677D-01
      3  -0.136424D+00 -0.332560D-01
 Hessian after L701:
                1             2             3             4             5 
      1  0.130809D+02
      2  0.000000D+00  0.106043D+02
      3  0.272195D-01  0.000000D+00 -0.881308D+00
      4 -0.132177D+02  0.000000D+00 -0.311847D-01  0.180324D+02
      5  0.000000D+00 -0.117298D+02  0.000000D+00  0.000000D+00  0.142958D+02
      6 -0.252525D-01  0.000000D+00  0.140040D+01  0.724900D-02  0.000000D+00
      7  0.684027D-01 -0.248292D-02  0.198262D-02 -0.240735D+01 -0.143306D-01
      8 -0.599371D-03  0.562751D+00 -0.276400D+00 -0.162983D-01 -0.128298D+01
      9 -0.983513D-03 -0.317839D+00 -0.259545D+00  0.119679D-01 -0.901995D+00
     10  0.684027D-01  0.248292D-02  0.198262D-02 -0.240735D+01  0.143306D-01
     11  0.599371D-03  0.562751D+00  0.276400D+00  0.162983D-01 -0.128298D+01
     12 -0.983513D-03  0.317839D+00 -0.259545D+00  0.119679D-01  0.901995D+00
                6             7             8             9            10 
      6  0.241226D+01
      7  0.900173D-02  0.205375D+01
      8 -0.795877D+00  0.168556D-01  0.126186D+01
      9 -0.190633D+01 -0.110768D-01  0.114606D+01  0.185075D+01
     10  0.900173D-02  0.285197D+00  0.420677D-04  0.924271D-04  0.205375D+01
     11  0.795877D+00 -0.420677D-04 -0.541630D+00  0.737782D-01 -0.168556D-01
     12 -0.190633D+01  0.924271D-04 -0.737782D-01  0.315122D+00 -0.110768D-01
               11            12 
     11  0.126186D+01
     12 -0.114606D+01  0.185075D+01
 Leave Link  701 at Tue Jul  9 11:00:36 2024, MaxMem=    97648640 cpu:               1.0 elap:               0.3
 (Enter /cluster/software/Gaussian/g16_B.01/l702.exe)
 L702 exits ... SP integral derivatives will be done elsewhere.
 Leave Link  702 at Tue Jul  9 11:00:36 2024, MaxMem=    97648640 cpu:               0.3 elap:               0.0
 (Enter /cluster/software/Gaussian/g16_B.01/l703.exe)
 Integral derivatives from FoFJK, PRISM(SPDF).
 Compute integral second derivatives, UseDBF=F ICtDFT=           0.
 ICntrl=    100127.
 Calling FoFJK, ICntrl=    100127 FMM=F ISym2X=0 I1Cent= 0 IOpClX= 0 NMat=1 NMatS=1 NMatT=0.
 FoFJK:  IHMeth= 1 ICntrl=  100127 DoSepK=F KAlg= 0 I1Cent=           0 FoldK=F
 IRaf=         0 NMat=       1 IRICut=       1 DoRegI=T DoRafI=F ISym2E= 0 IDoP0=0 IntGTp=1.
 FoFCou: FMM=F IPFlag=           0 FMFlag=      100000 FMFlg1=         800
         NFxFlg=           0 DoJE=F BraDBF=F KetDBF=F FulRan=T
         wScrn=  0.000000 ICntrl=    100127 IOpCl=  0 I1Cent=           0 NGrid=           0
         NMat0=    1 NMatS0=      1 NMatT0=    0 NMatD0=    1 NMtDS0=    0 NMtDT0=    0
 Symmetry not used in FoFCou.
 FoFCou:  KetSym=F NOpSet=  1 NOpAb=1 NOp=  1.
 FoFCou:  CnvScl= 1.00D+00 Thresh= 1.00D-12 IAcrcy=      10.
 PrismS was handed    97482780 working-precision words and  1275 shell-pairs
 FoFCou: LinMIO=F DoNuc=F BraDBF=F KetDBF=F HaveP=T PDBF=F HaveZ=T HaveW=F
         NIJTC =      15 NIJTAt=       0 NIJTCD=       0 NIJTT =      15
         IJTBeg=       1 IJTEnd=      15 KLTBeg=       1 KLTEnd=      15
         IPTBeg=       1 IPTEnd=      15 IPTBCv=       1 IPTECv=      15
         IZTBeg=       1 IZTEnd=      15 IZTBCv=       1 IZTECv=      15
         IWTBeg=      16 IWTEnd=      15 IWTBCv=      16 IWTECv=      15
         INTBeg=       1 INTEnd=       0 IFTBCv=       1 IFTECv=      15
 NCel replicated for PrismC:     1
 CoulSu:  requested number of processors reduced to:   4 ShMem   1 Linda.
 CoulSu-InSpLW:  IPartL=    0 NPrtUS=    4 NPrtUL=    1 DoSpLW=F IThBeg=    0 IThEnd=    3 NThAct=    4.
 CoulSu:  IncTry=  1024 NBBP=         813450 NTPThr=   100 NPartT=    4 Incr=        1024 LDynOK=F GPUOK=F.
 CoulSu:  NPrtUS=   4 ThrOK=T IAlg=2 LenDen=           0 LWGrdD=           0 DoCopy=F ISkipM=0
          DoSpLW=F IThBeg=    0 IThEnd=    3.
 Enter PrismC:  IPart=  0 JobTyp=22 DoJE=F Cont=F.
 PrismC:  IPart=     0 DynPar=T LinDyn=F Incr=        1024 UseFst=F UseS4=T ISplat=2.
 PrismC was handed    24349301 working-precision words and  1275 shell-pairs
 Enter PrismC:  IPart=  2 JobTyp=22 DoJE=F Cont=F.
 Enter PrismC:  IPart=  1 JobTyp=22 DoJE=F Cont=F.
 PrismC:  IPart=     2 DynPar=T LinDyn=F Incr=        1024 UseFst=F UseS4=T ISplat=2.
 PrismC was handed    24349301 working-precision words and  1275 shell-pairs
 PrismC:  IPart=     1 DynPar=T LinDyn=F Incr=        1024 UseFst=F UseS4=T ISplat=2.
 PrismC was handed    24349301 working-precision words and  1275 shell-pairs
 Enter PrismC:  IPart=  3 JobTyp=22 DoJE=F Cont=F.
 PrismC:  IPart=     3 DynPar=T LinDyn=F Incr=        1024 UseFst=F UseS4=T ISplat=2.
 PrismC was handed    24349301 working-precision words and  1275 shell-pairs
 IPart=  0 NShTot=      188917 NShNF=      188917 NShFF=           0 MinMC=       3
           NShCPU=      188917 NBCPU=        7225 AvBCPU=        26.1
           NShGPU=           0 NBGPU=           0 AvBGPU=         0.0
 IPart=  3 NShTot=      183344 NShNF=      183344 NShFF=           0 MinMC=       3
           NShCPU=      183344 NBCPU=        6987 AvBCPU=        26.2
           NShGPU=           0 NBGPU=           0 AvBGPU=         0.0
 IPart=  1 NShTot=      192376 NShNF=      192376 NShFF=           0 MinMC=       3
           NShCPU=      192376 NBCPU=        7313 AvBCPU=        26.3
           NShGPU=           0 NBGPU=           0 AvBGPU=         0.0
 IPart=  2 NShTot=      234018 NShNF=      234018 NShFF=           0 MinMC=       3
           NShCPU=      234018 NBCPU=        8434 AvBCPU=        27.7
           NShGPU=           0 NBGPU=           0 AvBGPU=         0.0
 CoulSu:  NxtVal=         861185 LenVP=       24349302 MinMC=       3.
 Polarizability after L703:
                1             2             3 
      1  0.107805D+02
      2  0.000000D+00  0.151725D+02
      3  0.172189D-02  0.000000D+00  0.198598D+02
 Dipole Derivatives after L703:
                 1             2             3             4             5 
      1  -0.391369D+00  0.000000D+00 -0.320019D-02  0.222187D+00  0.000000D+00
      2   0.000000D+00 -0.536492D+00  0.000000D+00  0.000000D+00  0.882380D+00
      3  -0.208127D-03  0.000000D+00 -0.115493D+01  0.610820D-02  0.000000D+00
                 6             7             8             9            10 
      1   0.404610D-02  0.845909D-01 -0.243581D-03 -0.422954D-03  0.845909D-01
      2   0.000000D+00  0.221159D-02 -0.172944D+00  0.687677D-01 -0.221159D-02
      3   0.122144D+01 -0.295004D-02  0.136424D+00 -0.332560D-01 -0.295004D-02
                11            12 
      1   0.243581D-03 -0.422954D-03
      2  -0.172944D+00 -0.687677D-01
      3  -0.136424D+00 -0.332560D-01
 Hessian after L703:
                1             2             3             4             5 
      1  0.235442D-01
      2  0.000000D+00  0.867765D-01
      3 -0.680097D-03  0.000000D+00  0.106174D+01
      4 -0.713876D-01  0.000000D+00  0.571341D-03  0.216500D+00
      5  0.000000D+00 -0.122659D+00  0.000000D+00  0.000000D+00  0.659923D+00
      6  0.970685D-03  0.000000D+00 -0.966178D+00  0.938295D-03  0.000000D+00
      7  0.239217D-01 -0.153977D-04  0.543776D-04 -0.725560D-01  0.162436D-02
      8  0.985302D-04  0.179414D-01  0.179494D-01  0.101215D-02 -0.268632D+00
      9 -0.145294D-03  0.438796D-01 -0.477784D-01 -0.754818D-03  0.899513D-01
     10  0.239217D-01  0.153977D-04  0.543776D-04 -0.725560D-01 -0.162436D-02
     11 -0.985302D-04  0.179414D-01 -0.179494D-01 -0.101215D-02 -0.268632D+00
     12 -0.145294D-03 -0.438796D-01 -0.477784D-01 -0.754818D-03 -0.899513D-01
                6             7             8             9            10 
      6  0.118991D+01
      7 -0.954490D-03  0.243257D-01
      8  0.886288D-01 -0.135982D-02  0.271583D+00
      9 -0.111865D+00  0.942854D-03 -0.120205D+00  0.149484D+00
     10 -0.954490D-03  0.243085D-01  0.249143D-03 -0.427421D-04  0.243257D-01
     11 -0.886288D-01 -0.249143D-03 -0.208923D-01 -0.136263D-01  0.135982D-02
     12 -0.111865D+00 -0.427421D-04  0.136263D-01  0.101595D-01  0.942854D-03
               11            12 
     11  0.271583D+00
     12  0.120205D+00  0.149484D+00
 Leave Link  703 at Tue Jul  9 11:01:05 2024, MaxMem=    97648640 cpu:             116.8 elap:              28.8
 (Enter /cluster/software/Gaussian/g16_B.01/l716.exe)
 FrcOut:
 IF    =        44 IFX   =        56 IFXYZ =        68
 IFFX  =        80 IFFFX =       158 IFLen =        12
 IFFLen=        78 IFFFLn=         0 IEDerv=       158
 LEDerv=       629 IFroze=       957 ICStrt=     59150
 Dipole        =-1.00196775D-03 1.86968484D-14-1.05516846D+00
 DipoleDeriv   =-3.91368826D-01-1.48027619D-15-2.08127473D-04
                -7.71949501D-16-5.36492034D-01-6.86305277D-16
                -3.20018828D-03-2.78194154D-14-1.15493030D+00
                 2.22186960D-01 4.45339714D-15 6.10820470D-03
                 3.22968365D-15 8.82379957D-01-1.95461620D-14
                 4.04609646D-03 7.13720690D-15 1.22144223D+00
                 8.45909331D-02 2.21159307D-03-2.95003861D-03
                -2.43581242D-04-1.72943962D-01 1.36423756D-01
                -4.22954092D-04 6.87677053D-02-3.32559626D-02
                 8.45909331D-02-2.21159307D-03-2.95003861D-03
                 2.43581242D-04-1.72943962D-01-1.36423756D-01
                -4.22954092D-04-6.87677053D-02-3.32559626D-02
 Polarizability= 1.07804513D+01 7.59093776D-15 1.51724917D+01
                 1.72189113D-03-5.77646135D-14 1.98598079D+01
 PolarDeriv    =-2.84140209D-02-3.57919291D-13 4.39402113D-04
                 3.58308519D+00 1.13066123D-13-9.25785715D-03
                 2.89330855D-14-7.46505794D-03 1.79679826D-13
                -3.93209233D-14 2.59547023D+00 6.80143966D-13
                 3.45176590D+00 5.36278314D-14-2.73629008D+00
                -4.84399320D-02-6.94807162D-13 1.12249596D+01
                 9.18587367D-02 1.29741359D-12 9.63404886D-02
                -2.56444289D+00 7.29045374D-14 6.66113081D-02
                -6.50406921D-13 6.39795242D-02 1.25333597D-12
                 3.42739428D-13 4.70683619D+00 1.19041326D-11
                -2.39044339D+00 6.28274867D-14 9.65879357D+00
                 8.85765537D-02 5.66531455D-12-5.17261814D+00
                -3.17223579D-02 1.25438852D+00-4.83899454D-02
                -5.09321149D-01 2.61954830D-02-2.86767255D-02
                 9.79590514D-01-2.82572331D-02 6.75951893D+00
                 1.89931489D-02-3.65115321D+00 2.02577702D+00
                -5.30661256D-01 1.24223711D-02-3.46125175D+00
                -2.00683109D-02 2.59019107D+00-3.02617073D+00
                -3.17223579D-02-1.25438852D+00-4.83899454D-02
                -5.09321149D-01-2.61954830D-02-2.86767255D-02
                -9.79590514D-01-2.82572331D-02-6.75951893D+00
                -1.89931489D-02-3.65115321D+00-2.02577702D+00
                -5.30661256D-01-1.24223711D-02-3.46125175D+00
                -2.00683109D-02-2.59019107D+00-3.02617073D+00
 HyperPolar    = 1.72187008D-01-3.44660492D-13-1.98902818D-01
                 1.28612852D-12-7.85663260D+00-1.19499829D-13
                -4.39302948D+01-8.61596115D-02-4.64886902D-12
                -3.97533739D+01
 Quadrupole    = 7.54239280D-02 2.12558209D-01-2.87982137D-01
                 3.21440231D-15 3.76300164D-03 1.19712408D-14
 -------------------------------------------------------------------
 Center     Atomic                   Forces (Hartrees/Bohr)
 Number     Number              X              Y              Z
 -------------------------------------------------------------------
      1        8           0.000754762    0.000000000   -0.000000694
      2        6          -0.002288771   -0.000000000   -0.000011375
      3        1           0.000767005   -0.000007561    0.000006035
      4        1           0.000767005    0.000007561    0.000006035
 -------------------------------------------------------------------
 Cartesian Forces:  Max     0.002288771 RMS     0.000762947
 Force constants in Cartesian coordinates: 
                1             2             3             4             5 
      1  0.235442D-01
      2  0.000000D+00  0.867765D-01
      3 -0.680097D-03  0.000000D+00  0.106174D+01
      4 -0.713876D-01  0.000000D+00  0.571341D-03  0.216500D+00
      5  0.000000D+00 -0.122659D+00  0.000000D+00  0.000000D+00  0.659923D+00
      6  0.970685D-03  0.000000D+00 -0.966178D+00  0.938295D-03  0.000000D+00
      7  0.239217D-01 -0.153977D-04  0.543776D-04 -0.725560D-01  0.162436D-02
      8  0.985302D-04  0.179414D-01  0.179494D-01  0.101215D-02 -0.268632D+00
      9 -0.145294D-03  0.438796D-01 -0.477784D-01 -0.754818D-03  0.899513D-01
     10  0.239217D-01  0.153977D-04  0.543776D-04 -0.725560D-01 -0.162436D-02
     11 -0.985302D-04  0.179414D-01 -0.179494D-01 -0.101215D-02 -0.268632D+00
     12 -0.145294D-03 -0.438796D-01 -0.477784D-01 -0.754818D-03 -0.899513D-01
                6             7             8             9            10 
      6  0.118991D+01
      7 -0.954490D-03  0.243257D-01
      8  0.886288D-01 -0.135982D-02  0.271583D+00
      9 -0.111865D+00  0.942854D-03 -0.120205D+00  0.149484D+00
     10 -0.954490D-03  0.243085D-01  0.249143D-03 -0.427421D-04  0.243257D-01
     11 -0.886288D-01 -0.249143D-03 -0.208923D-01 -0.136263D-01  0.135982D-02
     12 -0.111865D+00 -0.427421D-04  0.136263D-01  0.101595D-01  0.942854D-03
               11            12 
     11  0.271583D+00
     12  0.120205D+00  0.149484D+00
 Final forces over variables, Energy=-1.13922370D+02:
 -1.60880713D-07 1.78026753D-08 1.78026760D-08-3.41879592D-08
 -3.41879590D-08 6.83759182D-08 5.37191787D-16
 Leave Link  716 at Tue Jul  9 11:01:05 2024, MaxMem=    97648640 cpu:               0.4 elap:               0.0
 (Enter /cluster/software/Gaussian/g16_B.01/l106.exe)
 NDeriv=      6 NFrqRd=  0 NDerD0=      0 MskFDP=       0 MskDFD=       0 MskDF0=       0
 Re-enter D2Numr:  normal mode   1 step-down number 1
 Leave Link  106 at Tue Jul  9 11:01:05 2024, MaxMem=    97648640 cpu:               4.0 elap:               0.3
 (Enter /cluster/software/Gaussian/g16_B.01/l301.exe)
 Standard basis: CC-pVQZ (5D, 7F)
 Ernie: Thresh=  0.10000D-02 Tol=  0.10000D-05 Strict=F.
 Ernie:  6 primitive shells out of 90 were deleted.
   170 basis functions,   252 primitive gaussians,   210 cartesian basis functions
     8 alpha electrons        8 beta electrons
       nuclear repulsion energy        31.9542140929 Hartrees.
 IExCor=    0 DFT=F Ex=HF Corr=None ExCW=0 ScaHFX=  1.000000
 ScaDFX=  1.000000  1.000000  1.000000  1.000000 ScalE2=  1.000000  1.000000
 IRadAn=      5 IRanWt=     -1 IRanGd=            0 ICorTp=0 IEmpDi=  4
 NAtoms=    4 NActive=    4 NUniq=    4 SFac= 1.00D+00 NAtFMM=   60 NAOKFM=F Big=F
 Integral buffers will be    131072 words long.
 Raffenetti 1 integral format.
 Two-electron integral symmetry is turned off.
 Leave Link  301 at Tue Jul  9 11:01:05 2024, MaxMem=    97648640 cpu:               0.8 elap:               0.1
 (Enter /cluster/software/Gaussian/g16_B.01/l302.exe)
 NPDir=0 NMtPBC=     1 NCelOv=     1 NCel=       1 NClECP=     1 NCelD=      1
         NCelK=      1 NCelE2=     1 NClLst=     1 CellRange=     0.0.
 One-electron integrals computed using PRISM.
 PrsmSu:  requested number of processors reduced to:   4 ShMem   1 Linda.
 NBasis=   170 RedAO= T EigKep=  2.32D-04  NBF=   170
 NBsUse=   170 1.00D-06 EigRej= -1.00D+00 NBFU=   170
 Leave Link  302 at Tue Jul  9 11:01:05 2024, MaxMem=    97648640 cpu:               2.2 elap:               0.2
 (Enter /cluster/software/Gaussian/g16_B.01/l303.exe)
 DipDrv:  MaxL=1.
 Leave Link  303 at Tue Jul  9 11:01:05 2024, MaxMem=    97648640 cpu:               0.4 elap:               0.1
 (Enter /cluster/software/Gaussian/g16_B.01/l401.exe)
 Initial guess from the checkpoint file:  "inputFull_3q.chk"
 B after Tr=    -0.000000   -0.000256    0.000000
         Rot=    1.000000    0.000408   -0.000000    0.000000 Ang=   0.05 deg.
 Guess basis will be translated and rotated to current coordinates.
 JPrj=2 DoOrth=T DoCkMO=T.
 Leave Link  401 at Tue Jul  9 11:01:05 2024, MaxMem=    97648640 cpu:               1.5 elap:               0.1
 (Enter /cluster/software/Gaussian/g16_B.01/l502.exe)
 Two-electron integral symmetry not used.
 Closed shell SCF:
 Using DIIS extrapolation, IDIIS=  1040.
 NGot=    97648640 LenX=    97555748 LenY=    97511207
 Requested convergence on RMS density matrix=1.00D-08 within 128 cycles.
 Requested convergence on MAX density matrix=1.00D-06.
 Requested convergence on             energy=1.00D-06.
 No special actions if energy rises.
 Fock matrices will be formed incrementally for  20 cycles.

 Cycle   1  Pass 1  IDiag  1:
 FoFJK:  IHMeth= 1 ICntrl=       0 DoSepK=F KAlg= 0 I1Cent=           0 FoldK=F
 IRaf= 990000000 NMat=       1 IRICut=       1 DoRegI=T DoRafI=F ISym2E= 0 IDoP0=0 IntGTp=1.
 FoFCou: FMM=F IPFlag=           0 FMFlag=      100000 FMFlg1=           0
         NFxFlg=           0 DoJE=F BraDBF=F KetDBF=F FulRan=T
         wScrn=  0.000000 ICntrl=         0 IOpCl=  0 I1Cent=           0 NGrid=           0
         NMat0=    1 NMatS0=      1 NMatT0=    0 NMatD0=    1 NMtDS0=    0 NMtDT0=    0
 Symmetry not used in FoFCou.
 E= -113.922362807434    
 DIIS: error= 2.66D-04 at cycle   1 NSaved=   1.
 NSaved= 1 IEnMin= 1 EnMin= -113.922362807434     IErMin= 1 ErrMin= 2.66D-04
 ErrMax= 2.66D-04  0.00D+00 EMaxC= 1.00D-01 BMatC= 6.86D-06 BMatP= 6.86D-06
 IDIUse=3 WtCom= 9.97D-01 WtEn= 2.66D-03
 Coeff-Com:  0.100D+01
 Coeff-En:   0.100D+01
 Coeff:      0.100D+01
 Gap=     2.582 Goal=   None    Shift=    0.000
 RMSDP=1.12D-05 MaxDP=3.09D-04              OVMax= 1.03D-03

 Cycle   2  Pass 1  IDiag  1:
 RMSU=  1.12D-05    CP:  1.00D+00
 E= -113.922369255703     Delta-E=       -0.000006448269 Rises=F Damp=F
 DIIS: error= 9.16D-05 at cycle   2 NSaved=   2.
 NSaved= 2 IEnMin= 2 EnMin= -113.922369255703     IErMin= 2 ErrMin= 9.16D-05
 ErrMax= 9.16D-05  0.00D+00 EMaxC= 1.00D-01 BMatC= 2.80D-07 BMatP= 6.86D-06
 IDIUse=1 WtCom= 1.00D+00 WtEn= 0.00D+00
 Coeff-Com: -0.184D+00 0.118D+01
 Coeff:     -0.184D+00 0.118D+01
 Gap=     0.556 Goal=   None    Shift=    0.000
 RMSDP=4.41D-06 MaxDP=1.28D-04 DE=-6.45D-06 OVMax= 3.74D-04

 Cycle   3  Pass 1  IDiag  1:
 RMSU=  2.03D-06    CP:  1.00D+00  1.35D+00
 E= -113.922369736377     Delta-E=       -0.000000480674 Rises=F Damp=F
 DIIS: error= 1.90D-05 at cycle   3 NSaved=   3.
 NSaved= 3 IEnMin= 3 EnMin= -113.922369736377     IErMin= 3 ErrMin= 1.90D-05
 ErrMax= 1.90D-05  0.00D+00 EMaxC= 1.00D-01 BMatC= 9.35D-09 BMatP= 2.80D-07
 IDIUse=1 WtCom= 1.00D+00 WtEn= 0.00D+00
 Coeff-Com:  0.258D-01-0.291D+00 0.127D+01
 Coeff:      0.258D-01-0.291D+00 0.127D+01
 Gap=     0.556 Goal=   None    Shift=    0.000
 RMSDP=1.13D-06 MaxDP=3.41D-05 DE=-4.81D-07 OVMax= 9.09D-05

 Cycle   4  Pass 1  IDiag  1:
 RMSU=  3.39D-07    CP:  1.00D+00  1.42D+00  1.39D+00
 E= -113.922369756365     Delta-E=       -0.000000019987 Rises=F Damp=F
 DIIS: error= 1.93D-06 at cycle   4 NSaved=   4.
 NSaved= 4 IEnMin= 4 EnMin= -113.922369756365     IErMin= 4 ErrMin= 1.93D-06
 ErrMax= 1.93D-06  0.00D+00 EMaxC= 1.00D-01 BMatC= 1.55D-10 BMatP= 9.35D-09
 IDIUse=1 WtCom= 1.00D+00 WtEn= 0.00D+00
 Coeff-Com: -0.421D-03 0.207D-01-0.179D+00 0.116D+01
 Coeff:     -0.421D-03 0.207D-01-0.179D+00 0.116D+01
 Gap=     0.556 Goal=   None    Shift=    0.000
 RMSDP=1.73D-07 MaxDP=5.87D-06 DE=-2.00D-08 OVMax= 1.11D-05

 Cycle   5  Pass 1  IDiag  1:
 RMSU=  4.14D-08    CP:  1.00D+00  1.42D+00  1.44D+00  1.43D+00
 E= -113.922369756702     Delta-E=       -0.000000000337 Rises=F Damp=F
 DIIS: error= 2.25D-07 at cycle   5 NSaved=   5.
 NSaved= 5 IEnMin= 5 EnMin= -113.922369756702     IErMin= 5 ErrMin= 2.25D-07
 ErrMax= 2.25D-07  0.00D+00 EMaxC= 1.00D-01 BMatC= 8.61D-12 BMatP= 1.55D-10
 IDIUse=1 WtCom= 1.00D+00 WtEn= 0.00D+00
 Coeff-Com: -0.607D-03 0.760D-02-0.411D-01 0.539D-01 0.980D+00
 Coeff:     -0.607D-03 0.760D-02-0.411D-01 0.539D-01 0.980D+00
 Gap=     0.556 Goal=   None    Shift=    0.000
 RMSDP=4.00D-08 MaxDP=1.47D-06 DE=-3.37D-10 OVMax= 1.84D-06

 Cycle   6  Pass 1  IDiag  1:
 RMSU=  1.48D-08    CP:  1.00D+00  1.41D+00  1.44D+00  1.52D+00  1.22D+00
 E= -113.922369756714     Delta-E=       -0.000000000011 Rises=F Damp=F
 DIIS: error= 1.61D-07 at cycle   6 NSaved=   6.
 NSaved= 6 IEnMin= 6 EnMin= -113.922369756714     IErMin= 6 ErrMin= 1.61D-07
 ErrMax= 1.61D-07  0.00D+00 EMaxC= 1.00D-01 BMatC= 2.49D-12 BMatP= 8.61D-12
 IDIUse=1 WtCom= 1.00D+00 WtEn= 0.00D+00
 Coeff-Com: -0.128D-03 0.345D-03 0.333D-02-0.898D-01 0.359D+00 0.727D+00
 Coeff:     -0.128D-03 0.345D-03 0.333D-02-0.898D-01 0.359D+00 0.727D+00
 Gap=     0.556 Goal=   None    Shift=    0.000
 RMSDP=1.29D-08 MaxDP=4.67D-07 DE=-1.12D-11 OVMax= 5.16D-07

 Cycle   7  Pass 1  IDiag  1:
 RMSU=  4.02D-09    CP:  1.00D+00  1.41D+00  1.44D+00  1.55D+00  1.37D+00
                    CP:  1.01D+00
 E= -113.922369756715     Delta-E=       -0.000000000002 Rises=F Damp=F
 DIIS: error= 2.70D-08 at cycle   7 NSaved=   7.
 NSaved= 7 IEnMin= 7 EnMin= -113.922369756715     IErMin= 7 ErrMin= 2.70D-08
 ErrMax= 2.70D-08  0.00D+00 EMaxC= 1.00D-01 BMatC= 7.49D-14 BMatP= 2.49D-12
 IDIUse=1 WtCom= 1.00D+00 WtEn= 0.00D+00
 Coeff-Com:  0.858D-04-0.106D-02 0.596D-02-0.145D-01-0.774D-01 0.499D-02
 Coeff-Com:  0.108D+01
 Coeff:      0.858D-04-0.106D-02 0.596D-02-0.145D-01-0.774D-01 0.499D-02
 Coeff:      0.108D+01
 Gap=     0.556 Goal=   None    Shift=    0.000
 RMSDP=6.53D-09 MaxDP=2.55D-07 DE=-1.96D-12 OVMax= 2.24D-07

 SCF Done:  E(RHF) =  -113.922369757     A.U. after    7 cycles
            NFock=  7  Conv=0.65D-08     -V/T= 2.0000
 KE= 1.139208606984D+02 PE=-3.325783388187D+02 EE= 7.278089427068D+01
 Leave Link  502 at Tue Jul  9 11:01:12 2024, MaxMem=    97648640 cpu:             103.8 elap:               6.6
 (Enter /cluster/software/Gaussian/g16_B.01/l801.exe)
 Range of M.O.s used for correlation:     1   170
 NBasis=   170 NAE=     8 NBE=     8 NFC=     0 NFV=     0
 NROrb=    170 NOA=     8 NOB=     8 NVA=   162 NVB=   162

 **** Warning!!: The largest alpha MO coefficient is  0.16500902D+02

 Leave Link  801 at Tue Jul  9 11:01:12 2024, MaxMem=    97648640 cpu:               0.3 elap:               0.0
 (Enter /cluster/software/Gaussian/g16_B.01/l1002.exe)
 Minotr:  Closed shell wavefunction.
          Direct CPHF calculation.
          Differentiating once with respect to electric field.
                with respect to dipole field.
          Electric field/nuclear overlap derivatives assumed to be zero.
          Requested convergence is 1.0D-08 RMS, and 1.0D-07 maximum.
          Secondary convergence is 1.0D-12 RMS, and 1.0D-12 maximum.
          NewPWx=F KeepS1=T KeepF1=T KeepIn=T MapXYZ=F SortEE=F KeepMc=T.
 Two-electron integral symmetry not used.
          MDV=      97648640 using IRadAn=       4.
          Solving linear equations simultaneously, MaxMat=     384.
          There are     3 degrees of freedom in the 1st order CPHF.  IDoFFX=0 NUNeed=     3.
      3 vectors produced by pass  0 Test12= 4.32D-14 3.33D-08 XBig12= 5.15D+00 1.48D+00.
 AX will form     3 AO Fock derivatives at one time.
 FoFJK:  IHMeth= 1 ICntrl=       0 DoSepK=F KAlg= 0 I1Cent=           0 FoldK=F
 IRaf= 990000000 NMat=       3 IRICut=       1 DoRegI=T DoRafI=F ISym2E= 0 IDoP0=0 IntGTp=1.
 FoFCou: FMM=F IPFlag=           0 FMFlag=      100000 FMFlg1=           0
         NFxFlg=           0 DoJE=F BraDBF=F KetDBF=F FulRan=T
         wScrn=  0.000000 ICntrl=         0 IOpCl=  0 I1Cent=           0 NGrid=           0
         NMat0=    3 NMatS0=      3 NMatT0=    0 NMatD0=    3 NMtDS0=    0 NMtDT0=    0
 Symmetry not used in FoFCou.
      3 vectors produced by pass  1 Test12= 4.32D-14 3.33D-08 XBig12= 6.93D-01 2.30D-01.
      3 vectors produced by pass  2 Test12= 4.32D-14 3.33D-08 XBig12= 6.16D-02 9.43D-02.
      3 vectors produced by pass  3 Test12= 4.32D-14 3.33D-08 XBig12= 2.34D-03 1.88D-02.
      3 vectors produced by pass  4 Test12= 4.32D-14 3.33D-08 XBig12= 8.85D-05 3.74D-03.
      3 vectors produced by pass  5 Test12= 4.32D-14 3.33D-08 XBig12= 7.99D-06 9.94D-04.
      3 vectors produced by pass  6 Test12= 4.32D-14 3.33D-08 XBig12= 9.43D-08 8.84D-05.
      3 vectors produced by pass  7 Test12= 4.32D-14 3.33D-08 XBig12= 1.18D-09 1.04D-05.
      3 vectors produced by pass  8 Test12= 4.32D-14 3.33D-08 XBig12= 1.18D-11 8.82D-07.
      1 vectors produced by pass  9 Test12= 4.32D-14 3.33D-08 XBig12= 2.55D-13 1.75D-07.
 InvSVY:  IOpt=1 It=  1 EMax= 1.33D-15
 Solved reduced A of dimension    28 with     3 vectors.
 End of Minotr F.D. properties file   721 does not exist.
 End of Minotr F.D. properties file   722 does not exist.
 End of Minotr F.D. properties file   788 does not exist.
 Leave Link 1002 at Tue Jul  9 11:01:22 2024, MaxMem=    97648640 cpu:             151.9 elap:               9.6
 (Enter /cluster/software/Gaussian/g16_B.01/l1101.exe)
 Using compressed storage, NAtomX=     4.
 Will process      5 centers per pass.
 PrsmSu:  requested number of processors reduced to:   2 ShMem   1 Linda.
 PrsmSu:  requested number of processors reduced to:   9 ShMem   1 Linda.
 Leave Link 1101 at Tue Jul  9 11:01:22 2024, MaxMem=    97648640 cpu:               1.5 elap:               0.2
 (Enter /cluster/software/Gaussian/g16_B.01/l1102.exe)
 Symmetrizing basis deriv contribution to polar:
 IMax=3 JMax=2 DiffMx= 0.00D+00
 Leave Link 1102 at Tue Jul  9 11:01:22 2024, MaxMem=    97648640 cpu:               0.4 elap:               0.1
 (Enter /cluster/software/Gaussian/g16_B.01/l1110.exe)
 Forming Gx(P) for the SCF density, NAtomX=     4.
 Integral derivatives from FoFJK, PRISM(SPDF).
 Do as many integral derivatives as possible in FoFJK.
 G2DrvN: MDV=      97648192.
 G2DrvN: will do     3 centers at a time, making    2 passes.
 Estimated number of processors is:   10
 G2DrvN:  IPasSy=1 do centers    0 through    2.
 PxScal for G2LodP:  IOpCl= 0 ISclPx=1 IMOff=     1 NMtTot=     4 NTT=   14535 ScalPx= 2.48D+00
 Calling FoFCou, ICntrl=  3107 FMM=F I1Cent=   0 AccDes= 0.00D+00.
 FoFJK:  IHMeth= 1 ICntrl=    3107 DoSepK=F KAlg= 0 I1Cent=           0 FoldK=F
 IRaf=         0 NMat=       1 IRICut=       1 DoRegI=T DoRafI=F ISym2E= 0 IDoP0=0 IntGTp=1.
 FoFCou: FMM=F IPFlag=           0 FMFlag=      100000 FMFlg1=           0
         NFxFlg=           0 DoJE=F BraDBF=F KetDBF=F FulRan=T
         wScrn=  0.000000 ICntrl=      3107 IOpCl=  0 I1Cent=           0 NGrid=           0
         NMat0=    1 NMatS0=      1 NMatT0=    0 NMatD0=    4 NMtDS0=    3 NMtDT0=    0
 Symmetry not used in FoFCou.
 CoulSu:  requested number of processors reduced to:  10 ShMem   1 Linda.
 G2DrvN:  IPasSy=1 do centers    3 through    4.
 PxScal for G2LodP:  IOpCl= 0 ISclPx=1 IMOff=     1 NMtTot=     4 NTT=   14535 ScalPx= 2.48D+00
 Calling FoFCou, ICntrl=  3107 FMM=F I1Cent=   0 AccDes= 0.00D+00.
 CoulSu:  requested number of processors reduced to:  10 ShMem   1 Linda.
 End of G2Drv F.D. properties file   721 does not exist.
 End of G2Drv F.D. properties file   722 does not exist.
 End of G2Drv F.D. properties file   788 does not exist.
 Leave Link 1110 at Tue Jul  9 11:01:34 2024, MaxMem=    97648640 cpu:             121.1 elap:              12.0
 (Enter /cluster/software/Gaussian/g16_B.01/l1002.exe)
 Minotr:  Closed shell wavefunction.
          IDoAtm=1111
          Direct CPHF calculation.
          Differentiating once with respect to electric field.
                with respect to dipole field.
          Differentiating once with respect to nuclear coordinates.
          Requested convergence is 1.0D-08 RMS, and 1.0D-07 maximum.
          Secondary convergence is 1.0D-12 RMS, and 1.0D-12 maximum.
          NewPWx=T KeepS1=F KeepF1=F KeepIn=T MapXYZ=F SortEE=F KeepMc=T.
 Two-electron integral symmetry not used.
          MDV=      97648640 using IRadAn=       4.
          Solving linear equations simultaneously, MaxMat=     384.
 FoF2E skips out because all densities are zero.
 FoFJK:  IHMeth= 1 ICntrl=       0 DoSepK=F KAlg= 0 I1Cent=           0 FoldK=F
 IRaf= 990000000 NMat=       4 IRICut=       1 DoRegI=T DoRafI=F ISym2E= 0 IDoP0=0 IntGTp=1.
 FoFCou: FMM=F IPFlag=           0 FMFlag=      100000 FMFlg1=           0
         NFxFlg=           0 DoJE=F BraDBF=F KetDBF=F FulRan=T
         wScrn=  0.000000 ICntrl=         0 IOpCl=  0 I1Cent=           0 NGrid=           0
         NMat0=    4 NMatS0=      4 NMatT0=    0 NMatD0=    4 NMtDS0=    0 NMtDT0=    0
 Symmetry not used in FoFCou.
          There are    15 degrees of freedom in the 1st order CPHF.  IDoFFX=5 NUNeed=    15.
 Will reuse    3 saved solutions.
      9 vectors produced by pass  0 Test12= 8.64D-15 6.67D-09 XBig12= 6.15D-02 9.02D-02.
 AX will form     3 AO Fock derivatives at one time.
      9 vectors produced by pass  1 Test12= 8.64D-15 6.67D-09 XBig12= 1.03D-02 4.70D-02.
      9 vectors produced by pass  2 Test12= 8.64D-15 6.67D-09 XBig12= 2.24D-04 5.72D-03.
      9 vectors produced by pass  3 Test12= 8.64D-15 6.67D-09 XBig12= 2.19D-06 4.61D-04.
      9 vectors produced by pass  4 Test12= 8.64D-15 6.67D-09 XBig12= 2.43D-08 5.71D-05.
      9 vectors produced by pass  5 Test12= 8.64D-15 6.67D-09 XBig12= 2.17D-10 5.39D-06.
      9 vectors produced by pass  6 Test12= 8.64D-15 6.67D-09 XBig12= 2.75D-12 6.45D-07.
      5 vectors produced by pass  7 Test12= 8.64D-15 6.67D-09 XBig12= 1.85D-14 2.88D-08.
 InvSVY:  IOpt=1 It=  1 EMax= 9.99D-16
 Solved reduced A of dimension    68 with     9 vectors.
 FullF1:  Do perturbations      1 to       3.
 Isotropic polarizability for W=    0.000000       15.27 Bohr**3.
 FullF1:  Do perturbations      1 to       3.
 FullF1:  Do perturbations      4 to       6.
 End of Minotr F.D. properties file   721 does not exist.
 End of Minotr F.D. properties file   722 does not exist.
 End of Minotr F.D. properties file   788 does not exist.
 Leave Link 1002 at Tue Jul  9 11:02:04 2024, MaxMem=    97648640 cpu:             477.3 elap:              30.0
 (Enter /cluster/software/Gaussian/g16_B.01/l601.exe)
 Copying SCF densities to generalized density rwf, IOpCl= 0 IROHF=0.

 **********************************************************************

            Population analysis using the SCF Density.

 **********************************************************************

 Alpha  occ. eigenvalues --  -20.57225 -11.33173  -1.42421  -0.86841  -0.70272
 Alpha  occ. eigenvalues --   -0.65996  -0.54896  -0.43961
 Alpha virt. eigenvalues --    0.11675   0.12254   0.17619   0.21810   0.33659
 Alpha virt. eigenvalues --    0.34449   0.34511   0.46804   0.47938   0.54093
 Alpha virt. eigenvalues --    0.54366   0.62956   0.65270   0.67604   0.74495
 Alpha virt. eigenvalues --    0.74996   0.81709   0.87012   0.90427   0.95841
 Alpha virt. eigenvalues --    1.02613   1.07916   1.12120   1.14183   1.21814
 Alpha virt. eigenvalues --    1.33987   1.46423   1.47109   1.50877   1.54555
 Alpha virt. eigenvalues --    1.63121   1.63176   1.73479   1.78683   1.87723
 Alpha virt. eigenvalues --    1.92414   2.02340   2.04143   2.04849   2.07388
 Alpha virt. eigenvalues --    2.10715   2.13871   2.29005   2.36612   2.37787
 Alpha virt. eigenvalues --    2.38142   2.48055   2.58157   2.61860   2.66555
 Alpha virt. eigenvalues --    2.66680   2.78948   2.81337   2.87624   2.90705
 Alpha virt. eigenvalues --    3.09759   3.10066   3.20090   3.22008   3.42788
 Alpha virt. eigenvalues --    3.48817   3.58089   3.62571   3.67687   3.70664
 Alpha virt. eigenvalues --    3.72501   3.75002   3.89490   4.05014   4.05853
 Alpha virt. eigenvalues --    4.13202   4.33362   4.38215   4.39990   4.58158
 Alpha virt. eigenvalues --    4.61759   4.70778   4.73188   5.05653   5.07239
 Alpha virt. eigenvalues --    5.38049   5.42109   5.51064   5.53830   5.67906
 Alpha virt. eigenvalues --    5.72653   5.84254   6.01738   6.03791   6.10890
 Alpha virt. eigenvalues --    6.20321   6.26310   6.26847   6.28020   6.34194
 Alpha virt. eigenvalues --    6.36703   6.41179   6.49732   6.63404   6.74727
 Alpha virt. eigenvalues --    6.76452   6.78615   6.92711   7.01867   7.22501
 Alpha virt. eigenvalues --    7.47465   7.58717   7.71648   7.71720   7.75171
 Alpha virt. eigenvalues --    7.81753   7.85065   7.87313   7.96873   8.04590
 Alpha virt. eigenvalues --    8.06869   8.28132   8.29976   8.46838   8.50221
 Alpha virt. eigenvalues --    8.53861   8.59270   8.77034   8.87580   8.89693
 Alpha virt. eigenvalues --    8.98272   9.29846   9.35281   9.37693   9.45135
 Alpha virt. eigenvalues --    9.59885   9.67115   9.93373  10.16237  10.27383
 Alpha virt. eigenvalues --   10.29974  10.36827  10.57294  10.63447  10.72691
 Alpha virt. eigenvalues --   10.74901  10.95050  11.12190  11.25991  11.42214
 Alpha virt. eigenvalues --   11.59859  11.61555  11.62204  11.84604  11.99980
 Alpha virt. eigenvalues --   12.23584  12.37546  12.59637  12.76613  12.91907
 Alpha virt. eigenvalues --   12.99068  13.37314  13.93092  14.47297  14.68511
 Alpha virt. eigenvalues --   25.94887  42.81381
          Condensed to atoms (all electrons):
               1          2          3          4
     1  O    7.842647   0.684730  -0.079413  -0.082430
     2  C    0.684730   4.198752   0.392517   0.395713
     3  H   -0.079413   0.392517   0.817401  -0.149143
     4  H   -0.082430   0.395713  -0.149143   0.817250
 Mulliken charges:
               1
     1  O   -0.365535
     2  C    0.328288
     3  H    0.018638
     4  H    0.018609
 Sum of Mulliken charges =  -0.00000
 Mulliken charges with hydrogens summed into heavy atoms:
               1
     1  O   -0.365535
     2  C    0.365535
 APT charges:
               1
     1  O   -0.694278
     2  C    0.775352
     3  H   -0.039869
     4  H   -0.041205
 Sum of APT charges =  -0.00000
 APT charges with hydrogens summed into heavy atoms:
               1
     1  O   -0.694278
     2  C    0.694278
 Electronic spatial extent (au):  <R**2>=             58.9479
 Charge=             -0.0000 electrons
 Dipole moment (field-independent basis, Debye):
    X=              0.0000    Y=              0.0072    Z=             -2.6821  Tot=              2.6821
 Quadrupole moment (field-independent basis, Debye-Ang):
   XX=            -11.5951   YY=            -11.4104   ZZ=            -12.0836
   XY=             -0.0000   XZ=             -0.0000   YZ=             -0.0176
 Traceless Quadrupole moment (field-independent basis, Debye-Ang):
   XX=              0.1013   YY=              0.2859   ZZ=             -0.3872
   XY=             -0.0000   XZ=             -0.0000   YZ=             -0.0176
 Octapole moment (field-independent basis, Debye-Ang**2):
  XXX=              0.0000  YYY=             -0.0035  ZZZ=              0.2371  XYY=              0.0000
  XXY=              0.0035  XXZ=              0.4550  XZZ=              0.0000  YZZ=              0.0292
  YYZ=             -0.5956  XYZ=              0.0000
 Hexadecapole moment (field-independent basis, Debye-Ang**3):
 XXXX=            -10.0956 YYYY=            -17.3101 ZZZZ=            -43.4321 XXXY=             -0.0000
 XXXZ=             -0.0000 YYYX=             -0.0000 YYYZ=              0.0171 ZZZX=             -0.0000
 ZZZY=             -0.0328 XXYY=             -4.9163 XXZZ=             -8.8514 YYZZ=             -9.6971
 XXYZ=              0.0050 YYXZ=              0.0000 ZZXY=             -0.0000
 N-N= 3.195421409289D+01 E-N=-3.325783386556D+02  KE= 1.139208606984D+02
  Exact polarizability:  10.780   0.000  15.172   0.000  -0.017  19.860
 Approx polarizability:  10.437   0.000  12.368   0.000  -0.023  17.349
 No NMR shielding tensors so no spin-rotation constants.
 Leave Link  601 at Tue Jul  9 11:02:04 2024, MaxMem=    97648640 cpu:               2.6 elap:               0.2
 (Enter /cluster/software/Gaussian/g16_B.01/l701.exe)
 SCFChk:  SCF convergence  6.53D-09 required  1.00D-08
 ... and contract with generalized density number  0.
 Compute integral second derivatives.
 Entering OneElI...
 Calculate overlap and kinetic energy integrals
    NBasis = 210  MinDer = 2  MaxDer = 2
 Requested accuracy = 0.1000D-12
 PrsmSu:  requested number of processors reduced to:   1 ShMem   1 Linda.
 PrmmSu-InSpLW:  IPartL=    0 NPrtUS=    1 NPrtUL=    1 DoSpLW=F IThBeg=    0 IThEnd=    0 NThAct=    1.
 PrSmSu:  IncTry=   512 NBBP=           1275 NTPThr=   100 NPartT=    1 Incr=          12 LDynOK=F GPUOK=F.
 PrsmSu:  NPrtUS=   1 ThrOK=F IAlg=2 LenDen=           0 ISkipM=0 DoSpLW=F IThBeg=    0 IThEnd=    0.
 Prism:   IPart=     0 DynPar=F LinDyn=F Incr=          12.
 PRISM was handed    97371836 working-precision words and  1275 shell-pairs
 IPart=  0 NShTot=        1275 NBatch=          77 AvBLen=        16.6
 PrSmSu:  NxtVal=             13.
 Entering OneElI...
 Calculate potential energy integrals
    NBasis = 210  MinDer = 2  MaxDer = 2
 Requested accuracy = 0.1000D-12
 PrsmSu:  requested number of processors reduced to:   4 ShMem   1 Linda.
 PrmmSu-InSpLW:  IPartL=    0 NPrtUS=    4 NPrtUL=    1 DoSpLW=F IThBeg=    0 IThEnd=    3 NThAct=    4.
 PrSmSu:  IncTry=   512 NBBP=           5092 NTPThr=   100 NPartT=    4 Incr=          12 LDynOK=F GPUOK=F.
 PrsmSu:  NPrtUS=   4 ThrOK=T IAlg=2 LenDen=           0 ISkipM=0 DoSpLW=F IThBeg=    0 IThEnd=    3.
 Prism:   IPart=     0 DynPar=F LinDyn=F Incr=          12.
 PRISM was handed    24334029 working-precision words and  1273 shell-pairs
 PRISM was handed    24334029 working-precision words and  1273 shell-pairs
 PRISM was handed    24334029 working-precision words and  1273 shell-pairs
 PRISM was handed    24334029 working-precision words and  1273 shell-pairs
 IPart=  2 NShTot=        1236 NBatch=         309 AvBLen=         4.0
 IPart=  0 NShTot=        1332 NBatch=         333 AvBLen=         4.0
 IPart=  3 NShTot=        1224 NBatch=         306 AvBLen=         4.0
 IPart=  1 NShTot=        1300 NBatch=         325 AvBLen=         4.0
 PrSmSu:  NxtVal=             49.
 Polarizability after L701:
                1             2             3 
      1  0.107801D+02
      2  0.000000D+00  0.151724D+02
      3  0.000000D+00 -0.165584D-01  0.198598D+02
 Dipole Derivatives after L701:
                 1             2             3             4             5 
      1  -0.391390D+00  0.000000D+00  0.000000D+00  0.222214D+00  0.000000D+00
      2   0.000000D+00 -0.536493D+00 -0.279085D-02  0.000000D+00  0.882381D+00
      3   0.000000D+00  0.513768D-03 -0.115495D+01  0.000000D+00  0.204849D-02
                 6             7             8             9            10 
      1   0.000000D+00  0.852916D-01  0.000000D+00  0.000000D+00  0.838846D-01
      2   0.151855D-02  0.000000D+00 -0.171394D+00  0.694023D-01  0.000000D+00
      3   0.122146D+01  0.000000D+00  0.135153D+00 -0.335035D-01  0.000000D+00
                11            12 
      1   0.000000D+00  0.000000D+00
      2  -0.174493D+00 -0.681300D-01
      3  -0.137715D+00 -0.330075D-01
 Hessian after L701:
                1             2             3             4             5 
      1  0.130809D+02
      2  0.000000D+00  0.106039D+02
      3  0.000000D+00  0.372602D-01 -0.881252D+00
      4 -0.132177D+02  0.000000D+00  0.000000D+00  0.180329D+02
      5  0.000000D+00 -0.117295D+02 -0.348273D-01  0.000000D+00  0.142954D+02
      6  0.000000D+00 -0.286093D-01  0.140033D+01  0.000000D+00  0.424533D-01
      7  0.644995D-01  0.000000D+00  0.000000D+00 -0.240283D+01  0.000000D+00
      8  0.000000D+00  0.558014D+00 -0.277604D+00  0.000000D+00 -0.129815D+01
      9  0.000000D+00 -0.322163D+00 -0.253406D+00  0.000000D+00 -0.905713D+00
     10  0.723589D-01  0.000000D+00  0.000000D+00 -0.241233D+01  0.000000D+00
     11  0.000000D+00  0.567546D+00  0.275171D+00  0.000000D+00 -0.126777D+01
     12  0.000000D+00  0.313512D+00 -0.265667D+00  0.000000D+00  0.898087D+00
                6             7             8             9            10 
      6  0.241216D+01
      7  0.000000D+00  0.205314D+01
      8 -0.802725D+00  0.000000D+00  0.128174D+01
      9 -0.188697D+01  0.000000D+00  0.115034D+01  0.182528D+01
     10  0.000000D+00  0.285189D+00  0.000000D+00  0.000000D+00  0.205478D+01
     11  0.788881D+00  0.000000D+00 -0.541603D+00  0.775367D-01  0.000000D+00
     12 -0.192552D+01  0.000000D+00 -0.700107D-01  0.315093D+00  0.000000D+00
               11            12 
     11  0.124182D+01
     12 -0.114159D+01  0.187609D+01
 Leave Link  701 at Tue Jul  9 11:02:05 2024, MaxMem=    97648640 cpu:               1.0 elap:               0.3
 (Enter /cluster/software/Gaussian/g16_B.01/l702.exe)
 L702 exits ... SP integral derivatives will be done elsewhere.
 Leave Link  702 at Tue Jul  9 11:02:05 2024, MaxMem=    97648640 cpu:               0.3 elap:               0.0
 (Enter /cluster/software/Gaussian/g16_B.01/l703.exe)
 Integral derivatives from FoFJK, PRISM(SPDF).
 Compute integral second derivatives, UseDBF=F ICtDFT=           0.
 ICntrl=    100127.
 Calling FoFJK, ICntrl=    100127 FMM=F ISym2X=0 I1Cent= 0 IOpClX= 0 NMat=1 NMatS=1 NMatT=0.
 FoFJK:  IHMeth= 1 ICntrl=  100127 DoSepK=F KAlg= 0 I1Cent=           0 FoldK=F
 IRaf=         0 NMat=       1 IRICut=       1 DoRegI=T DoRafI=F ISym2E= 0 IDoP0=0 IntGTp=1.
 FoFCou: FMM=F IPFlag=           0 FMFlag=      100000 FMFlg1=         800
         NFxFlg=           0 DoJE=F BraDBF=F KetDBF=F FulRan=T
         wScrn=  0.000000 ICntrl=    100127 IOpCl=  0 I1Cent=           0 NGrid=           0
         NMat0=    1 NMatS0=      1 NMatT0=    0 NMatD0=    1 NMtDS0=    0 NMtDT0=    0
 Symmetry not used in FoFCou.
 FoFCou:  KetSym=F NOpSet=  1 NOpAb=1 NOp=  1.
 FoFCou:  CnvScl= 1.00D+00 Thresh= 1.00D-12 IAcrcy=      10.
 PrismS was handed    97482780 working-precision words and  1275 shell-pairs
 FoFCou: LinMIO=F DoNuc=F BraDBF=F KetDBF=F HaveP=T PDBF=F HaveZ=T HaveW=F
         NIJTC =      15 NIJTAt=       0 NIJTCD=       0 NIJTT =      15
         IJTBeg=       1 IJTEnd=      15 KLTBeg=       1 KLTEnd=      15
         IPTBeg=       1 IPTEnd=      15 IPTBCv=       1 IPTECv=      15
         IZTBeg=       1 IZTEnd=      15 IZTBCv=       1 IZTECv=      15
         IWTBeg=      16 IWTEnd=      15 IWTBCv=      16 IWTECv=      15
         INTBeg=       1 INTEnd=       0 IFTBCv=       1 IFTECv=      15
 NCel replicated for PrismC:     1
 CoulSu:  requested number of processors reduced to:   4 ShMem   1 Linda.
 CoulSu-InSpLW:  IPartL=    0 NPrtUS=    4 NPrtUL=    1 DoSpLW=F IThBeg=    0 IThEnd=    3 NThAct=    4.
 CoulSu:  IncTry=  1024 NBBP=         813450 NTPThr=   100 NPartT=    4 Incr=        1024 LDynOK=F GPUOK=F.
 CoulSu:  NPrtUS=   4 ThrOK=T IAlg=2 LenDen=           0 LWGrdD=           0 DoCopy=F ISkipM=0
          DoSpLW=F IThBeg=    0 IThEnd=    3.
 Enter PrismC:  IPart=  0 JobTyp=22 DoJE=F Cont=F.
 PrismC:  IPart=     0 DynPar=T LinDyn=F Incr=        1024 UseFst=F UseS4=T ISplat=2.
 PrismC was handed    24349301 working-precision words and  1275 shell-pairs
 Enter PrismC:  IPart=  2 JobTyp=22 DoJE=F Cont=F.
 Enter PrismC:  IPart=  1 JobTyp=22 DoJE=F Cont=F.
 PrismC:  IPart=     2 DynPar=T LinDyn=F Incr=        1024 UseFst=F UseS4=T ISplat=2.
 Enter PrismC:  IPart=  3 JobTyp=22 DoJE=F Cont=F.
 PrismC was handed    24349301 working-precision words and  1275 shell-pairs
 PrismC:  IPart=     1 DynPar=T LinDyn=F Incr=        1024 UseFst=F UseS4=T ISplat=2.
 PrismC was handed    24349301 working-precision words and  1275 shell-pairs
 PrismC:  IPart=     3 DynPar=T LinDyn=F Incr=        1024 UseFst=F UseS4=T ISplat=2.
 PrismC was handed    24349301 working-precision words and  1275 shell-pairs
 IPart=  3 NShTot=      199222 NShNF=      199222 NShFF=           0 MinMC=       3
           NShCPU=      199222 NBCPU=        7441 AvBCPU=        26.8
           NShGPU=           0 NBGPU=           0 AvBGPU=         0.0
 IPart=  2 NShTot=      191270 NShNF=      191270 NShFF=           0 MinMC=       3
           NShCPU=      191270 NBCPU=        7537 AvBCPU=        25.4
           NShGPU=           0 NBGPU=           0 AvBGPU=         0.0
 IPart=  0 NShTot=      186190 NShNF=      186190 NShFF=           0 MinMC=       3
           NShCPU=      186190 NBCPU=        6884 AvBCPU=        27.0
           NShGPU=           0 NBGPU=           0 AvBGPU=         0.0
 IPart=  1 NShTot=      221939 NShNF=      221939 NShFF=           0 MinMC=       3
           NShCPU=      221939 NBCPU=        8099 AvBCPU=        27.4
           NShGPU=           0 NBGPU=           0 AvBGPU=         0.0
 CoulSu:  NxtVal=         861185 LenVP=       24349302 MinMC=       3.
 Polarizability after L703:
                1             2             3 
      1  0.107801D+02
      2  0.000000D+00  0.151724D+02
      3  0.000000D+00 -0.165584D-01  0.198598D+02
 Dipole Derivatives after L703:
                 1             2             3             4             5 
      1  -0.391390D+00  0.000000D+00  0.000000D+00  0.222214D+00  0.000000D+00
      2   0.000000D+00 -0.536493D+00 -0.279085D-02  0.000000D+00  0.882381D+00
      3   0.000000D+00  0.513768D-03 -0.115495D+01  0.000000D+00  0.204849D-02
                 6             7             8             9            10 
      1   0.000000D+00  0.852916D-01  0.000000D+00  0.000000D+00  0.838846D-01
      2   0.151855D-02  0.000000D+00 -0.171394D+00  0.694023D-01  0.000000D+00
      3   0.122146D+01  0.000000D+00  0.135153D+00 -0.335035D-01  0.000000D+00
                11            12 
      1   0.000000D+00  0.000000D+00
      2  -0.174493D+00 -0.681300D-01
      3  -0.137715D+00 -0.330075D-01
 Hessian after L703:
                1             2             3             4             5 
      1  0.235388D-01
      2  0.000000D+00  0.867771D-01
      3  0.000000D+00  0.200106D-03  0.106174D+01
      4 -0.713889D-01  0.000000D+00  0.000000D+00  0.216488D+00
      5  0.000000D+00 -0.122658D+00  0.265484D-03  0.000000D+00  0.659943D+00
      6  0.000000D+00  0.649885D-03 -0.966182D+00  0.000000D+00 -0.228189D-02
      7  0.236154D-01  0.000000D+00  0.000000D+00 -0.723037D-01  0.000000D+00
      8  0.000000D+00  0.181017D-01  0.177197D-01  0.000000D+00 -0.267722D+00
      9  0.000000D+00  0.434550D-01 -0.470877D-01  0.000000D+00  0.909660D-01
     10  0.242348D-01  0.000000D+00  0.000000D+00 -0.727953D-01  0.000000D+00
     11  0.000000D+00  0.177792D-01 -0.181853D-01  0.000000D+00 -0.269563D+00
     12  0.000000D+00 -0.443050D-01 -0.484740D-01  0.000000D+00 -0.889495D-01
                6             7             8             9            10 
      6  0.118993D+01
      7  0.000000D+00  0.243781D-01
      8  0.894481D-01  0.000000D+00  0.270508D+00
      9 -0.113361D+00  0.000000D+00 -0.120908D+00  0.150291D+00
     10  0.000000D+00  0.243103D-01  0.000000D+00  0.000000D+00  0.242502D-01
     11 -0.878161D-01  0.000000D+00 -0.208878D-01 -0.135128D-01  0.000000D+00
     12 -0.110387D+00  0.000000D+00  0.137404D-01  0.101582D-01  0.000000D+00
               11            12 
     11  0.272671D+00
     12  0.119514D+00  0.148703D+00
 Leave Link  703 at Tue Jul  9 11:02:35 2024, MaxMem=    97648640 cpu:             122.1 elap:              30.1
 (Enter /cluster/software/Gaussian/g16_B.01/l716.exe)
 FrcOut:
 IF    =        44 IFX   =        56 IFXYZ =        68
 IFFX  =        80 IFFFX =       158 IFLen =        12
 IFFLen=        78 IFFFLn=         0 IEDerv=       158
 LEDerv=       629 IFroze=       957 ICStrt=     59150
 Dipole        = 3.81760549D-15 2.81671162D-03-1.05520067D+00
 DipoleDeriv   =-3.91390228D-01-1.28260336D-15 3.13793829D-16
                -2.67586505D-15-5.36493264D-01 5.13767787D-04
                 3.20447903D-15-2.79085294D-03-1.15495078D+00
                 2.22213985D-01-8.02614596D-16-4.35712391D-15
                -1.20064972D-15 8.82380575D-01 2.04849104D-03
                -1.36356933D-14 1.51855262D-03 1.22146175D+00
                 8.52916283D-02-1.70511114D-15 3.28345018D-15
                -3.25797875D-16-1.71394147D-01 1.35153226D-01
                 2.18358979D-15 6.94022850D-02-3.35034662D-02
                 8.38846142D-02 3.79032910D-15 7.59879902D-16
                 4.20231264D-15-1.74493164D-01-1.37715485D-01
                 8.24762446D-15-6.81299847D-02-3.30075058D-02
 Polarizability= 1.07801340D+01 3.18189699D-14 1.51724231D+01
                 3.18676593D-14-1.65584187D-02 1.98597966D+01
 PolarDeriv    =-6.32414047D-13-2.56044811D-04-1.47582746D-13
                 3.58298283D+00 3.63178571D-15-1.42159347D-12
                -1.56852852D-02-1.85806277D-13-1.37140404D-02
                -7.00021303D-14 2.59538909D+00-2.20756734D-02
                 3.45195781D+00-2.44378932D-15-2.73652571D+00
                -3.16473667D-13-5.86971593D-03 1.12242321D+01
                 8.33431307D-13 9.85680328D-03 2.45623955D-13
                -2.56456911D+00 6.58540520D-13-1.18632642D-12
                 3.18808666D-02 1.34714669D-13 1.29388794D-01
                 1.34580675D-13 4.70673763D+00-8.84747226D-03
                -2.39089104D+00-1.45992534D-13 9.65869262D+00
                 1.30648356D-12-3.36271809D-02-5.17138857D+00
                -2.24188620D-13 1.24940718D+00-7.36913946D-15
                -5.12020487D-01-6.16989511D-13 1.46144532D-12
                 9.71441090D-01-3.63945097D-14 6.70178995D+00
                -3.26235027D-14-3.65984939D+00 2.04141104D+00
                -5.39644544D-01 6.59803093D-14-3.48083791D+00
                -7.03180357D-13 2.60993275D+00-3.07112677D+00
                 2.11835917D-14-1.25900793D+00-9.06720693D-14
                -5.06393232D-01-4.51827954D-14 1.14647457D-12
                -9.87636671D-01 8.64922328D-14-6.81746470D+00
                -3.19550417D-14-3.64227733D+00-2.01048790D+00
                -5.21422228D-01 8.24560141D-14-3.44132901D+00
                -2.87823419D-13-2.57043586D+00-2.98171680D+00
 HyperPolar    =-9.88133035D-13 1.64858708D-02-1.80363650D-13
                -3.11187374D-01-7.85480774D+00-1.18955536D-13
                -4.39293450D+01-5.03752288D-13 2.98291557D-01
                -3.97560513D+01
 Quadrupole    = 7.53198977D-02 2.12590265D-01-2.87910163D-01
                -9.96566286D-15-8.28628167D-15-1.30672127D-02
 -------------------------------------------------------------------
 Center     Atomic                   Forces (Hartrees/Bohr)
 Number     Number              X              Y              Z
 -------------------------------------------------------------------
      1        8          -0.000000000    0.001485941    0.000006009
      2        6          -0.000000000   -0.002077872   -0.000009023
      3        1           0.000000000    0.000288499    0.000759985
      4        1           0.000000000    0.000303433   -0.000756971
 -------------------------------------------------------------------
 Cartesian Forces:  Max     0.002077872 RMS     0.000808887
 Force constants in Cartesian coordinates: 
                1             2             3             4             5 
      1  0.235388D-01
      2  0.000000D+00  0.867771D-01
      3  0.000000D+00  0.200106D-03  0.106174D+01
      4 -0.713889D-01  0.000000D+00  0.000000D+00  0.216488D+00
      5  0.000000D+00 -0.122658D+00  0.265484D-03  0.000000D+00  0.659943D+00
      6  0.000000D+00  0.649885D-03 -0.966182D+00  0.000000D+00 -0.228189D-02
      7  0.236154D-01  0.000000D+00  0.000000D+00 -0.723037D-01  0.000000D+00
      8  0.000000D+00  0.181017D-01  0.177197D-01  0.000000D+00 -0.267722D+00
      9  0.000000D+00  0.434550D-01 -0.470877D-01  0.000000D+00  0.909660D-01
     10  0.242348D-01  0.000000D+00  0.000000D+00 -0.727953D-01  0.000000D+00
     11  0.000000D+00  0.177792D-01 -0.181853D-01  0.000000D+00 -0.269563D+00
     12  0.000000D+00 -0.443050D-01 -0.484740D-01  0.000000D+00 -0.889495D-01
                6             7             8             9            10 
      6  0.118993D+01
      7  0.000000D+00  0.243781D-01
      8  0.894481D-01  0.000000D+00  0.270508D+00
      9 -0.113361D+00  0.000000D+00 -0.120908D+00  0.150291D+00
     10  0.000000D+00  0.243103D-01  0.000000D+00  0.000000D+00  0.242502D-01
     11 -0.878161D-01  0.000000D+00 -0.208878D-01 -0.135128D-01  0.000000D+00
     12 -0.110387D+00  0.000000D+00  0.137404D-01  0.101582D-01  0.000000D+00
               11            12 
     11  0.272671D+00
     12  0.119514D+00  0.148703D+00
 Final forces over variables, Energy=-1.13922370D+02:
 -1.60880713D-07 1.78026753D-08 1.78026760D-08-3.41879592D-08
 -3.41879590D-08 6.83759182D-08 5.37191787D-16
 Leave Link  716 at Tue Jul  9 11:02:35 2024, MaxMem=    97648640 cpu:               0.4 elap:               0.0
 (Enter /cluster/software/Gaussian/g16_B.01/l106.exe)
 NDeriv=      6 NFrqRd=  0 NDerD0=      0 MskFDP=       0 MskDFD=       0 MskDF0=       0
 Re-enter D2Numr:  normal mode   2 step-up   number 1
 Leave Link  106 at Tue Jul  9 11:02:35 2024, MaxMem=    97648640 cpu:               1.5 elap:               0.1
 (Enter /cluster/software/Gaussian/g16_B.01/l301.exe)
 Standard basis: CC-pVQZ (5D, 7F)
 Ernie: Thresh=  0.10000D-02 Tol=  0.10000D-05 Strict=F.
 Ernie:  6 primitive shells out of 90 were deleted.
   170 basis functions,   252 primitive gaussians,   210 cartesian basis functions
     8 alpha electrons        8 beta electrons
       nuclear repulsion energy        31.9542140929 Hartrees.
 IExCor=    0 DFT=F Ex=HF Corr=None ExCW=0 ScaHFX=  1.000000
 ScaDFX=  1.000000  1.000000  1.000000  1.000000 ScalE2=  1.000000  1.000000
 IRadAn=      5 IRanWt=     -1 IRanGd=            0 ICorTp=0 IEmpDi=  4
 NAtoms=    4 NActive=    4 NUniq=    4 SFac= 1.00D+00 NAtFMM=   60 NAOKFM=F Big=F
 Integral buffers will be    131072 words long.
 Raffenetti 1 integral format.
 Two-electron integral symmetry is turned off.
 Leave Link  301 at Tue Jul  9 11:02:35 2024, MaxMem=    97648640 cpu:               0.8 elap:               0.1
 (Enter /cluster/software/Gaussian/g16_B.01/l302.exe)
 NPDir=0 NMtPBC=     1 NCelOv=     1 NCel=       1 NClECP=     1 NCelD=      1
         NCelK=      1 NCelE2=     1 NClLst=     1 CellRange=     0.0.
 One-electron integrals computed using PRISM.
 PrsmSu:  requested number of processors reduced to:   4 ShMem   1 Linda.
 NBasis=   170 RedAO= T EigKep=  2.32D-04  NBF=   170
 NBsUse=   170 1.00D-06 EigRej= -1.00D+00 NBFU=   170
 Leave Link  302 at Tue Jul  9 11:02:35 2024, MaxMem=    97648640 cpu:               2.2 elap:               0.2
 (Enter /cluster/software/Gaussian/g16_B.01/l303.exe)
 DipDrv:  MaxL=1.
 Leave Link  303 at Tue Jul  9 11:02:35 2024, MaxMem=    97648640 cpu:               0.4 elap:               0.1
 (Enter /cluster/software/Gaussian/g16_B.01/l401.exe)
 Initial guess from the checkpoint file:  "inputFull_3q.chk"
 B after Tr=     0.000000    0.000256   -0.000000
         Rot=    1.000000   -0.000408    0.000000   -0.000000 Ang=  -0.05 deg.
 Guess basis will be translated and rotated to current coordinates.
 JPrj=2 DoOrth=T DoCkMO=T.
 Leave Link  401 at Tue Jul  9 11:02:35 2024, MaxMem=    97648640 cpu:               1.5 elap:               0.1
 (Enter /cluster/software/Gaussian/g16_B.01/l502.exe)
 Two-electron integral symmetry not used.
 Closed shell SCF:
 Using DIIS extrapolation, IDIIS=  1040.
 NGot=    97648640 LenX=    97555748 LenY=    97511207
 Requested convergence on RMS density matrix=1.00D-08 within 128 cycles.
 Requested convergence on MAX density matrix=1.00D-06.
 Requested convergence on             energy=1.00D-06.
 No special actions if energy rises.
 Fock matrices will be formed incrementally for  20 cycles.

 Cycle   1  Pass 1  IDiag  1:
 FoFJK:  IHMeth= 1 ICntrl=       0 DoSepK=F KAlg= 0 I1Cent=           0 FoldK=F
 IRaf= 990000000 NMat=       1 IRICut=       1 DoRegI=T DoRafI=F ISym2E= 0 IDoP0=0 IntGTp=1.
 FoFCou: FMM=F IPFlag=           0 FMFlag=      100000 FMFlg1=           0
         NFxFlg=           0 DoJE=F BraDBF=F KetDBF=F FulRan=T
         wScrn=  0.000000 ICntrl=         0 IOpCl=  0 I1Cent=           0 NGrid=           0
         NMat0=    1 NMatS0=      1 NMatT0=    0 NMatD0=    1 NMtDS0=    0 NMtDT0=    0
 Symmetry not used in FoFCou.
 E= -113.922362807434    
 DIIS: error= 2.66D-04 at cycle   1 NSaved=   1.
 NSaved= 1 IEnMin= 1 EnMin= -113.922362807434     IErMin= 1 ErrMin= 2.66D-04
 ErrMax= 2.66D-04  0.00D+00 EMaxC= 1.00D-01 BMatC= 6.86D-06 BMatP= 6.86D-06
 IDIUse=3 WtCom= 9.97D-01 WtEn= 2.66D-03
 Coeff-Com:  0.100D+01
 Coeff-En:   0.100D+01
 Coeff:      0.100D+01
 Gap=     2.582 Goal=   None    Shift=    0.000
 RMSDP=1.12D-05 MaxDP=3.09D-04              OVMax= 1.03D-03

 Cycle   2  Pass 1  IDiag  1:
 RMSU=  1.12D-05    CP:  1.00D+00
 E= -113.922369255703     Delta-E=       -0.000006448269 Rises=F Damp=F
 DIIS: error= 9.16D-05 at cycle   2 NSaved=   2.
 NSaved= 2 IEnMin= 2 EnMin= -113.922369255703     IErMin= 2 ErrMin= 9.16D-05
 ErrMax= 9.16D-05  0.00D+00 EMaxC= 1.00D-01 BMatC= 2.80D-07 BMatP= 6.86D-06
 IDIUse=1 WtCom= 1.00D+00 WtEn= 0.00D+00
 Coeff-Com: -0.184D+00 0.118D+01
 Coeff:     -0.184D+00 0.118D+01
 Gap=     0.556 Goal=   None    Shift=    0.000
 RMSDP=4.41D-06 MaxDP=1.28D-04 DE=-6.45D-06 OVMax= 3.74D-04

 Cycle   3  Pass 1  IDiag  1:
 RMSU=  2.03D-06    CP:  1.00D+00  1.35D+00
 E= -113.922369736377     Delta-E=       -0.000000480674 Rises=F Damp=F
 DIIS: error= 1.90D-05 at cycle   3 NSaved=   3.
 NSaved= 3 IEnMin= 3 EnMin= -113.922369736377     IErMin= 3 ErrMin= 1.90D-05
 ErrMax= 1.90D-05  0.00D+00 EMaxC= 1.00D-01 BMatC= 9.35D-09 BMatP= 2.80D-07
 IDIUse=1 WtCom= 1.00D+00 WtEn= 0.00D+00
 Coeff-Com:  0.258D-01-0.291D+00 0.127D+01
 Coeff:      0.258D-01-0.291D+00 0.127D+01
 Gap=     0.556 Goal=   None    Shift=    0.000
 RMSDP=1.13D-06 MaxDP=3.41D-05 DE=-4.81D-07 OVMax= 9.09D-05

 Cycle   4  Pass 1  IDiag  1:
 RMSU=  3.39D-07    CP:  1.00D+00  1.42D+00  1.39D+00
 E= -113.922369756365     Delta-E=       -0.000000019987 Rises=F Damp=F
 DIIS: error= 1.93D-06 at cycle   4 NSaved=   4.
 NSaved= 4 IEnMin= 4 EnMin= -113.922369756365     IErMin= 4 ErrMin= 1.93D-06
 ErrMax= 1.93D-06  0.00D+00 EMaxC= 1.00D-01 BMatC= 1.55D-10 BMatP= 9.35D-09
 IDIUse=1 WtCom= 1.00D+00 WtEn= 0.00D+00
 Coeff-Com: -0.421D-03 0.207D-01-0.179D+00 0.116D+01
 Coeff:     -0.421D-03 0.207D-01-0.179D+00 0.116D+01
 Gap=     0.556 Goal=   None    Shift=    0.000
 RMSDP=1.73D-07 MaxDP=5.87D-06 DE=-2.00D-08 OVMax= 1.11D-05

 Cycle   5  Pass 1  IDiag  1:
 RMSU=  4.14D-08    CP:  1.00D+00  1.42D+00  1.44D+00  1.43D+00
 E= -113.922369756702     Delta-E=       -0.000000000337 Rises=F Damp=F
 DIIS: error= 2.25D-07 at cycle   5 NSaved=   5.
 NSaved= 5 IEnMin= 5 EnMin= -113.922369756702     IErMin= 5 ErrMin= 2.25D-07
 ErrMax= 2.25D-07  0.00D+00 EMaxC= 1.00D-01 BMatC= 8.61D-12 BMatP= 1.55D-10
 IDIUse=1 WtCom= 1.00D+00 WtEn= 0.00D+00
 Coeff-Com: -0.607D-03 0.760D-02-0.411D-01 0.539D-01 0.980D+00
 Coeff:     -0.607D-03 0.760D-02-0.411D-01 0.539D-01 0.980D+00
 Gap=     0.556 Goal=   None    Shift=    0.000
 RMSDP=4.00D-08 MaxDP=1.47D-06 DE=-3.37D-10 OVMax= 1.84D-06

 Cycle   6  Pass 1  IDiag  1:
 RMSU=  1.48D-08    CP:  1.00D+00  1.41D+00  1.44D+00  1.52D+00  1.22D+00
 E= -113.922369756713     Delta-E=       -0.000000000011 Rises=F Damp=F
 DIIS: error= 1.61D-07 at cycle   6 NSaved=   6.
 NSaved= 6 IEnMin= 6 EnMin= -113.922369756713     IErMin= 6 ErrMin= 1.61D-07
 ErrMax= 1.61D-07  0.00D+00 EMaxC= 1.00D-01 BMatC= 2.49D-12 BMatP= 8.61D-12
 IDIUse=1 WtCom= 1.00D+00 WtEn= 0.00D+00
 Coeff-Com: -0.128D-03 0.345D-03 0.333D-02-0.898D-01 0.359D+00 0.727D+00
 Coeff:     -0.128D-03 0.345D-03 0.333D-02-0.898D-01 0.359D+00 0.727D+00
 Gap=     0.556 Goal=   None    Shift=    0.000
 RMSDP=1.29D-08 MaxDP=4.67D-07 DE=-1.13D-11 OVMax= 5.16D-07

 Cycle   7  Pass 1  IDiag  1:
 RMSU=  4.02D-09    CP:  1.00D+00  1.41D+00  1.44D+00  1.55D+00  1.37D+00
                    CP:  1.01D+00
 E= -113.922369756715     Delta-E=       -0.000000000002 Rises=F Damp=F
 DIIS: error= 2.70D-08 at cycle   7 NSaved=   7.
 NSaved= 7 IEnMin= 7 EnMin= -113.922369756715     IErMin= 7 ErrMin= 2.70D-08
 ErrMax= 2.70D-08  0.00D+00 EMaxC= 1.00D-01 BMatC= 7.49D-14 BMatP= 2.49D-12
 IDIUse=1 WtCom= 1.00D+00 WtEn= 0.00D+00
 Coeff-Com:  0.858D-04-0.106D-02 0.596D-02-0.145D-01-0.774D-01 0.499D-02
 Coeff-Com:  0.108D+01
 Coeff:      0.858D-04-0.106D-02 0.596D-02-0.145D-01-0.774D-01 0.499D-02
 Coeff:      0.108D+01
 Gap=     0.556 Goal=   None    Shift=    0.000
 RMSDP=6.53D-09 MaxDP=2.55D-07 DE=-1.96D-12 OVMax= 2.24D-07

 SCF Done:  E(RHF) =  -113.922369757     A.U. after    7 cycles
            NFock=  7  Conv=0.65D-08     -V/T= 2.0000
 KE= 1.139208606984D+02 PE=-3.325783388187D+02 EE= 7.278089427068D+01
 Leave Link  502 at Tue Jul  9 11:02:41 2024, MaxMem=    97648640 cpu:              94.8 elap:               6.0
 (Enter /cluster/software/Gaussian/g16_B.01/l801.exe)
 Range of M.O.s used for correlation:     1   170
 NBasis=   170 NAE=     8 NBE=     8 NFC=     0 NFV=     0
 NROrb=    170 NOA=     8 NOB=     8 NVA=   162 NVB=   162

 **** Warning!!: The largest alpha MO coefficient is  0.16500902D+02

 Leave Link  801 at Tue Jul  9 11:02:41 2024, MaxMem=    97648640 cpu:               0.3 elap:               0.0
 (Enter /cluster/software/Gaussian/g16_B.01/l1002.exe)
 Minotr:  Closed shell wavefunction.
          Direct CPHF calculation.
          Differentiating once with respect to electric field.
                with respect to dipole field.
          Electric field/nuclear overlap derivatives assumed to be zero.
          Requested convergence is 1.0D-08 RMS, and 1.0D-07 maximum.
          Secondary convergence is 1.0D-12 RMS, and 1.0D-12 maximum.
          NewPWx=F KeepS1=T KeepF1=T KeepIn=T MapXYZ=F SortEE=F KeepMc=T.
 Two-electron integral symmetry not used.
          MDV=      97648640 using IRadAn=       4.
          Solving linear equations simultaneously, MaxMat=     384.
          There are     3 degrees of freedom in the 1st order CPHF.  IDoFFX=0 NUNeed=     3.
      3 vectors produced by pass  0 Test12= 4.32D-14 3.33D-08 XBig12= 5.15D+00 1.48D+00.
 AX will form     3 AO Fock derivatives at one time.
 FoFJK:  IHMeth= 1 ICntrl=       0 DoSepK=F KAlg= 0 I1Cent=           0 FoldK=F
 IRaf= 990000000 NMat=       3 IRICut=       1 DoRegI=T DoRafI=F ISym2E= 0 IDoP0=0 IntGTp=1.
 FoFCou: FMM=F IPFlag=           0 FMFlag=      100000 FMFlg1=           0
         NFxFlg=           0 DoJE=F BraDBF=F KetDBF=F FulRan=T
         wScrn=  0.000000 ICntrl=         0 IOpCl=  0 I1Cent=           0 NGrid=           0
         NMat0=    3 NMatS0=      3 NMatT0=    0 NMatD0=    3 NMtDS0=    0 NMtDT0=    0
 Symmetry not used in FoFCou.
      3 vectors produced by pass  1 Test12= 4.32D-14 3.33D-08 XBig12= 6.93D-01 2.30D-01.
      3 vectors produced by pass  2 Test12= 4.32D-14 3.33D-08 XBig12= 6.16D-02 9.43D-02.
      3 vectors produced by pass  3 Test12= 4.32D-14 3.33D-08 XBig12= 2.34D-03 1.88D-02.
      3 vectors produced by pass  4 Test12= 4.32D-14 3.33D-08 XBig12= 8.85D-05 3.74D-03.
      3 vectors produced by pass  5 Test12= 4.32D-14 3.33D-08 XBig12= 7.99D-06 9.94D-04.
      3 vectors produced by pass  6 Test12= 4.32D-14 3.33D-08 XBig12= 9.43D-08 8.84D-05.
      3 vectors produced by pass  7 Test12= 4.32D-14 3.33D-08 XBig12= 1.18D-09 1.04D-05.
      3 vectors produced by pass  8 Test12= 4.32D-14 3.33D-08 XBig12= 1.18D-11 8.82D-07.
      1 vectors produced by pass  9 Test12= 4.32D-14 3.33D-08 XBig12= 2.55D-13 1.75D-07.
 InvSVY:  IOpt=1 It=  1 EMax= 4.44D-16
 Solved reduced A of dimension    28 with     3 vectors.
 End of Minotr F.D. properties file   721 does not exist.
 End of Minotr F.D. properties file   722 does not exist.
 End of Minotr F.D. properties file   788 does not exist.
 Leave Link 1002 at Tue Jul  9 11:02:51 2024, MaxMem=    97648640 cpu:             147.7 elap:               9.3
 (Enter /cluster/software/Gaussian/g16_B.01/l1101.exe)
 Using compressed storage, NAtomX=     4.
 Will process      5 centers per pass.
 PrsmSu:  requested number of processors reduced to:   2 ShMem   1 Linda.
 PrsmSu:  requested number of processors reduced to:   9 ShMem   1 Linda.
 Leave Link 1101 at Tue Jul  9 11:02:51 2024, MaxMem=    97648640 cpu:               1.5 elap:               0.2
 (Enter /cluster/software/Gaussian/g16_B.01/l1102.exe)
 Symmetrizing basis deriv contribution to polar:
 IMax=3 JMax=2 DiffMx= 0.00D+00
 Leave Link 1102 at Tue Jul  9 11:02:51 2024, MaxMem=    97648640 cpu:               0.4 elap:               0.1
 (Enter /cluster/software/Gaussian/g16_B.01/l1110.exe)
 Forming Gx(P) for the SCF density, NAtomX=     4.
 Integral derivatives from FoFJK, PRISM(SPDF).
 Do as many integral derivatives as possible in FoFJK.
 G2DrvN: MDV=      97648192.
 G2DrvN: will do     3 centers at a time, making    2 passes.
 Estimated number of processors is:   10
 G2DrvN:  IPasSy=1 do centers    0 through    2.
 PxScal for G2LodP:  IOpCl= 0 ISclPx=1 IMOff=     1 NMtTot=     4 NTT=   14535 ScalPx= 2.48D+00
 Calling FoFCou, ICntrl=  3107 FMM=F I1Cent=   0 AccDes= 0.00D+00.
 FoFJK:  IHMeth= 1 ICntrl=    3107 DoSepK=F KAlg= 0 I1Cent=           0 FoldK=F
 IRaf=         0 NMat=       1 IRICut=       1 DoRegI=T DoRafI=F ISym2E= 0 IDoP0=0 IntGTp=1.
 FoFCou: FMM=F IPFlag=           0 FMFlag=      100000 FMFlg1=           0
         NFxFlg=           0 DoJE=F BraDBF=F KetDBF=F FulRan=T
         wScrn=  0.000000 ICntrl=      3107 IOpCl=  0 I1Cent=           0 NGrid=           0
         NMat0=    1 NMatS0=      1 NMatT0=    0 NMatD0=    4 NMtDS0=    3 NMtDT0=    0
 Symmetry not used in FoFCou.
 CoulSu:  requested number of processors reduced to:  10 ShMem   1 Linda.
 G2DrvN:  IPasSy=1 do centers    3 through    4.
 PxScal for G2LodP:  IOpCl= 0 ISclPx=1 IMOff=     1 NMtTot=     4 NTT=   14535 ScalPx= 2.48D+00
 Calling FoFCou, ICntrl=  3107 FMM=F I1Cent=   0 AccDes= 0.00D+00.
 CoulSu:  requested number of processors reduced to:  10 ShMem   1 Linda.
 End of G2Drv F.D. properties file   721 does not exist.
 End of G2Drv F.D. properties file   722 does not exist.
 End of G2Drv F.D. properties file   788 does not exist.
 Leave Link 1110 at Tue Jul  9 11:03:02 2024, MaxMem=    97648640 cpu:             115.9 elap:              11.5
 (Enter /cluster/software/Gaussian/g16_B.01/l1002.exe)
 Minotr:  Closed shell wavefunction.
          IDoAtm=1111
          Direct CPHF calculation.
          Differentiating once with respect to electric field.
                with respect to dipole field.
          Differentiating once with respect to nuclear coordinates.
          Requested convergence is 1.0D-08 RMS, and 1.0D-07 maximum.
          Secondary convergence is 1.0D-12 RMS, and 1.0D-12 maximum.
          NewPWx=T KeepS1=F KeepF1=F KeepIn=T MapXYZ=F SortEE=F KeepMc=T.
 Two-electron integral symmetry not used.
          MDV=      97648640 using IRadAn=       4.
          Solving linear equations simultaneously, MaxMat=     384.
 FoF2E skips out because all densities are zero.
 FoFJK:  IHMeth= 1 ICntrl=       0 DoSepK=F KAlg= 0 I1Cent=           0 FoldK=F
 IRaf= 990000000 NMat=       4 IRICut=       1 DoRegI=T DoRafI=F ISym2E= 0 IDoP0=0 IntGTp=1.
 FoFCou: FMM=F IPFlag=           0 FMFlag=      100000 FMFlg1=           0
         NFxFlg=           0 DoJE=F BraDBF=F KetDBF=F FulRan=T
         wScrn=  0.000000 ICntrl=         0 IOpCl=  0 I1Cent=           0 NGrid=           0
         NMat0=    4 NMatS0=      4 NMatT0=    0 NMatD0=    4 NMtDS0=    0 NMtDT0=    0
 Symmetry not used in FoFCou.
          There are    15 degrees of freedom in the 1st order CPHF.  IDoFFX=5 NUNeed=    15.
 Will reuse    3 saved solutions.
      9 vectors produced by pass  0 Test12= 8.64D-15 6.67D-09 XBig12= 6.15D-02 9.02D-02.
 AX will form     3 AO Fock derivatives at one time.
      9 vectors produced by pass  1 Test12= 8.64D-15 6.67D-09 XBig12= 1.03D-02 4.70D-02.
      9 vectors produced by pass  2 Test12= 8.64D-15 6.67D-09 XBig12= 2.24D-04 5.72D-03.
      9 vectors produced by pass  3 Test12= 8.64D-15 6.67D-09 XBig12= 2.19D-06 4.61D-04.
      9 vectors produced by pass  4 Test12= 8.64D-15 6.67D-09 XBig12= 2.43D-08 5.71D-05.
      9 vectors produced by pass  5 Test12= 8.64D-15 6.67D-09 XBig12= 2.17D-10 5.39D-06.
      9 vectors produced by pass  6 Test12= 8.64D-15 6.67D-09 XBig12= 2.75D-12 6.45D-07.
      5 vectors produced by pass  7 Test12= 8.64D-15 6.67D-09 XBig12= 1.85D-14 2.88D-08.
 InvSVY:  IOpt=1 It=  1 EMax= 7.77D-16
 Solved reduced A of dimension    68 with     9 vectors.
 FullF1:  Do perturbations      1 to       3.
 Isotropic polarizability for W=    0.000000       15.27 Bohr**3.
 FullF1:  Do perturbations      1 to       3.
 FullF1:  Do perturbations      4 to       6.
 End of Minotr F.D. properties file   721 does not exist.
 End of Minotr F.D. properties file   722 does not exist.
 End of Minotr F.D. properties file   788 does not exist.
 Leave Link 1002 at Tue Jul  9 11:03:32 2024, MaxMem=    97648640 cpu:             476.7 elap:              30.0
 (Enter /cluster/software/Gaussian/g16_B.01/l601.exe)
 Copying SCF densities to generalized density rwf, IOpCl= 0 IROHF=0.

 **********************************************************************

            Population analysis using the SCF Density.

 **********************************************************************

 Alpha  occ. eigenvalues --  -20.57225 -11.33173  -1.42421  -0.86841  -0.70272
 Alpha  occ. eigenvalues --   -0.65996  -0.54896  -0.43961
 Alpha virt. eigenvalues --    0.11675   0.12254   0.17619   0.21810   0.33659
 Alpha virt. eigenvalues --    0.34449   0.34511   0.46804   0.47938   0.54093
 Alpha virt. eigenvalues --    0.54366   0.62956   0.65270   0.67604   0.74495
 Alpha virt. eigenvalues --    0.74996   0.81709   0.87012   0.90427   0.95841
 Alpha virt. eigenvalues --    1.02613   1.07916   1.12120   1.14183   1.21814
 Alpha virt. eigenvalues --    1.33987   1.46423   1.47109   1.50877   1.54555
 Alpha virt. eigenvalues --    1.63121   1.63176   1.73479   1.78683   1.87723
 Alpha virt. eigenvalues --    1.92414   2.02340   2.04143   2.04849   2.07388
 Alpha virt. eigenvalues --    2.10715   2.13871   2.29005   2.36612   2.37787
 Alpha virt. eigenvalues --    2.38142   2.48055   2.58157   2.61860   2.66555
 Alpha virt. eigenvalues --    2.66680   2.78948   2.81337   2.87624   2.90705
 Alpha virt. eigenvalues --    3.09759   3.10066   3.20090   3.22008   3.42788
 Alpha virt. eigenvalues --    3.48817   3.58089   3.62571   3.67687   3.70664
 Alpha virt. eigenvalues --    3.72501   3.75002   3.89490   4.05014   4.05853
 Alpha virt. eigenvalues --    4.13202   4.33362   4.38215   4.39990   4.58158
 Alpha virt. eigenvalues --    4.61759   4.70778   4.73188   5.05653   5.07239
 Alpha virt. eigenvalues --    5.38049   5.42109   5.51064   5.53830   5.67906
 Alpha virt. eigenvalues --    5.72653   5.84254   6.01738   6.03791   6.10890
 Alpha virt. eigenvalues --    6.20321   6.26310   6.26847   6.28020   6.34194
 Alpha virt. eigenvalues --    6.36703   6.41179   6.49732   6.63404   6.74727
 Alpha virt. eigenvalues --    6.76452   6.78615   6.92711   7.01867   7.22501
 Alpha virt. eigenvalues --    7.47465   7.58717   7.71648   7.71720   7.75171
 Alpha virt. eigenvalues --    7.81753   7.85065   7.87313   7.96873   8.04590
 Alpha virt. eigenvalues --    8.06869   8.28132   8.29976   8.46838   8.50221
 Alpha virt. eigenvalues --    8.53861   8.59270   8.77034   8.87580   8.89693
 Alpha virt. eigenvalues --    8.98272   9.29846   9.35281   9.37693   9.45135
 Alpha virt. eigenvalues --    9.59885   9.67115   9.93373  10.16237  10.27383
 Alpha virt. eigenvalues --   10.29974  10.36827  10.57294  10.63447  10.72691
 Alpha virt. eigenvalues --   10.74901  10.95050  11.12190  11.25991  11.42214
 Alpha virt. eigenvalues --   11.59859  11.61555  11.62204  11.84604  11.99980
 Alpha virt. eigenvalues --   12.23584  12.37546  12.59637  12.76613  12.91907
 Alpha virt. eigenvalues --   12.99068  13.37314  13.93092  14.47297  14.68511
 Alpha virt. eigenvalues --   25.94887  42.81381
          Condensed to atoms (all electrons):
               1          2          3          4
     1  O    7.842647   0.684730  -0.082430  -0.079413
     2  C    0.684730   4.198752   0.395713   0.392517
     3  H   -0.082430   0.395713   0.817250  -0.149143
     4  H   -0.079413   0.392517  -0.149143   0.817401
 Mulliken charges:
               1
     1  O   -0.365535
     2  C    0.328288
     3  H    0.018609
     4  H    0.018638
 Sum of Mulliken charges =  -0.00000
 Mulliken charges with hydrogens summed into heavy atoms:
               1
     1  O   -0.365535
     2  C    0.365535
 APT charges:
               1
     1  O   -0.694278
     2  C    0.775352
     3  H   -0.041205
     4  H   -0.039869
 Sum of APT charges =  -0.00000
 APT charges with hydrogens summed into heavy atoms:
               1
     1  O   -0.694278
     2  C    0.694278
 Electronic spatial extent (au):  <R**2>=             58.9479
 Charge=             -0.0000 electrons
 Dipole moment (field-independent basis, Debye):
    X=              0.0000    Y=             -0.0072    Z=             -2.6821  Tot=              2.6821
 Quadrupole moment (field-independent basis, Debye-Ang):
   XX=            -11.5951   YY=            -11.4104   ZZ=            -12.0836
   XY=             -0.0000   XZ=             -0.0000   YZ=              0.0176
 Traceless Quadrupole moment (field-independent basis, Debye-Ang):
   XX=              0.1013   YY=              0.2859   ZZ=             -0.3872
   XY=             -0.0000   XZ=             -0.0000   YZ=              0.0176
 Octapole moment (field-independent basis, Debye-Ang**2):
  XXX=              0.0000  YYY=              0.0035  ZZZ=              0.2371  XYY=             -0.0000
  XXY=             -0.0035  XXZ=              0.4550  XZZ=              0.0000  YZZ=             -0.0292
  YYZ=             -0.5956  XYZ=             -0.0000
 Hexadecapole moment (field-independent basis, Debye-Ang**3):
 XXXX=            -10.0956 YYYY=            -17.3101 ZZZZ=            -43.4321 XXXY=             -0.0000
 XXXZ=             -0.0000 YYYX=             -0.0000 YYYZ=             -0.0171 ZZZX=             -0.0000
 ZZZY=              0.0328 XXYY=             -4.9163 XXZZ=             -8.8514 YYZZ=             -9.6971
 XXYZ=             -0.0050 YYXZ=              0.0000 ZZXY=             -0.0000
 N-N= 3.195421409289D+01 E-N=-3.325783386556D+02  KE= 1.139208606984D+02
  Exact polarizability:  10.780   0.000  15.172   0.000   0.017  19.860
 Approx polarizability:  10.437   0.000  12.368   0.000   0.023  17.349
 No NMR shielding tensors so no spin-rotation constants.
 Leave Link  601 at Tue Jul  9 11:03:33 2024, MaxMem=    97648640 cpu:               2.6 elap:               0.2
 (Enter /cluster/software/Gaussian/g16_B.01/l701.exe)
 SCFChk:  SCF convergence  6.53D-09 required  1.00D-08
 ... and contract with generalized density number  0.
 Compute integral second derivatives.
 Entering OneElI...
 Calculate overlap and kinetic energy integrals
    NBasis = 210  MinDer = 2  MaxDer = 2
 Requested accuracy = 0.1000D-12
 PrsmSu:  requested number of processors reduced to:   1 ShMem   1 Linda.
 PrmmSu-InSpLW:  IPartL=    0 NPrtUS=    1 NPrtUL=    1 DoSpLW=F IThBeg=    0 IThEnd=    0 NThAct=    1.
 PrSmSu:  IncTry=   512 NBBP=           1275 NTPThr=   100 NPartT=    1 Incr=          12 LDynOK=F GPUOK=F.
 PrsmSu:  NPrtUS=   1 ThrOK=F IAlg=2 LenDen=           0 ISkipM=0 DoSpLW=F IThBeg=    0 IThEnd=    0.
 Prism:   IPart=     0 DynPar=F LinDyn=F Incr=          12.
 PRISM was handed    97371836 working-precision words and  1275 shell-pairs
 IPart=  0 NShTot=        1275 NBatch=          77 AvBLen=        16.6
 PrSmSu:  NxtVal=             13.
 Entering OneElI...
 Calculate potential energy integrals
    NBasis = 210  MinDer = 2  MaxDer = 2
 Requested accuracy = 0.1000D-12
 PrsmSu:  requested number of processors reduced to:   4 ShMem   1 Linda.
 PrmmSu-InSpLW:  IPartL=    0 NPrtUS=    4 NPrtUL=    1 DoSpLW=F IThBeg=    0 IThEnd=    3 NThAct=    4.
 PrSmSu:  IncTry=   512 NBBP=           5092 NTPThr=   100 NPartT=    4 Incr=          12 LDynOK=F GPUOK=F.
 PrsmSu:  NPrtUS=   4 ThrOK=T IAlg=2 LenDen=           0 ISkipM=0 DoSpLW=F IThBeg=    0 IThEnd=    3.
 Prism:   IPart=     0 DynPar=F LinDyn=F Incr=          12.
 PRISM was handed    24334029 working-precision words and  1273 shell-pairs
 PRISM was handed    24334029 working-precision words and  1273 shell-pairs
 PRISM was handed    24334029 working-precision words and  1273 shell-pairs
 PRISM was handed    24334029 working-precision words and  1273 shell-pairs
 IPart=  2 NShTot=        1236 NBatch=         309 AvBLen=         4.0
 IPart=  0 NShTot=        1332 NBatch=         333 AvBLen=         4.0
 IPart=  3 NShTot=        1224 NBatch=         306 AvBLen=         4.0
 IPart=  1 NShTot=        1300 NBatch=         325 AvBLen=         4.0
 PrSmSu:  NxtVal=             49.
 Polarizability after L701:
                1             2             3 
      1  0.107801D+02
      2  0.000000D+00  0.151724D+02
      3  0.000000D+00  0.165584D-01  0.198598D+02
 Dipole Derivatives after L701:
                 1             2             3             4             5 
      1  -0.391390D+00  0.000000D+00  0.000000D+00  0.222214D+00  0.000000D+00
      2   0.000000D+00 -0.536493D+00  0.279085D-02  0.000000D+00  0.882381D+00
      3   0.000000D+00 -0.513768D-03 -0.115495D+01  0.000000D+00 -0.204849D-02
                 6             7             8             9            10 
      1   0.000000D+00  0.838846D-01  0.000000D+00  0.000000D+00  0.852916D-01
      2  -0.151855D-02  0.000000D+00 -0.174493D+00  0.681300D-01  0.000000D+00
      3   0.122146D+01  0.000000D+00  0.137715D+00 -0.330075D-01  0.000000D+00
                11            12 
      1   0.000000D+00  0.000000D+00
      2  -0.171394D+00 -0.694023D-01
      3  -0.135153D+00 -0.335035D-01
 Hessian after L701:
                1             2             3             4             5 
      1  0.130809D+02
      2  0.000000D+00  0.106039D+02
      3  0.000000D+00 -0.372602D-01 -0.881252D+00
      4 -0.132177D+02  0.000000D+00  0.000000D+00  0.180329D+02
      5  0.000000D+00 -0.117295D+02  0.348273D-01  0.000000D+00  0.142954D+02
      6  0.000000D+00  0.286093D-01  0.140033D+01  0.000000D+00 -0.424533D-01
      7  0.723589D-01  0.000000D+00  0.000000D+00 -0.241233D+01  0.000000D+00
      8  0.000000D+00  0.567546D+00 -0.275171D+00  0.000000D+00 -0.126777D+01
      9  0.000000D+00 -0.313512D+00 -0.265667D+00  0.000000D+00 -0.898087D+00
     10  0.644995D-01  0.000000D+00  0.000000D+00 -0.240283D+01  0.000000D+00
     11  0.000000D+00  0.558014D+00  0.277604D+00  0.000000D+00 -0.129815D+01
     12  0.000000D+00  0.322163D+00 -0.253406D+00  0.000000D+00  0.905713D+00
                6             7             8             9            10 
      6  0.241216D+01
      7  0.000000D+00  0.205478D+01
      8 -0.788881D+00  0.000000D+00  0.124182D+01
      9 -0.192552D+01  0.000000D+00  0.114159D+01  0.187609D+01
     10  0.000000D+00  0.285189D+00  0.000000D+00  0.000000D+00  0.205314D+01
     11  0.802725D+00  0.000000D+00 -0.541603D+00  0.700107D-01  0.000000D+00
     12 -0.188697D+01  0.000000D+00 -0.775367D-01  0.315093D+00  0.000000D+00
               11            12 
     11  0.128174D+01
     12 -0.115034D+01  0.182528D+01
 Leave Link  701 at Tue Jul  9 11:03:33 2024, MaxMem=    97648640 cpu:               1.0 elap:               0.3
 (Enter /cluster/software/Gaussian/g16_B.01/l702.exe)
 L702 exits ... SP integral derivatives will be done elsewhere.
 Leave Link  702 at Tue Jul  9 11:03:33 2024, MaxMem=    97648640 cpu:               0.3 elap:               0.0
 (Enter /cluster/software/Gaussian/g16_B.01/l703.exe)
 Integral derivatives from FoFJK, PRISM(SPDF).
 Compute integral second derivatives, UseDBF=F ICtDFT=           0.
 ICntrl=    100127.
 Calling FoFJK, ICntrl=    100127 FMM=F ISym2X=0 I1Cent= 0 IOpClX= 0 NMat=1 NMatS=1 NMatT=0.
 FoFJK:  IHMeth= 1 ICntrl=  100127 DoSepK=F KAlg= 0 I1Cent=           0 FoldK=F
 IRaf=         0 NMat=       1 IRICut=       1 DoRegI=T DoRafI=F ISym2E= 0 IDoP0=0 IntGTp=1.
 FoFCou: FMM=F IPFlag=           0 FMFlag=      100000 FMFlg1=         800
         NFxFlg=           0 DoJE=F BraDBF=F KetDBF=F FulRan=T
         wScrn=  0.000000 ICntrl=    100127 IOpCl=  0 I1Cent=           0 NGrid=           0
         NMat0=    1 NMatS0=      1 NMatT0=    0 NMatD0=    1 NMtDS0=    0 NMtDT0=    0
 Symmetry not used in FoFCou.
 FoFCou:  KetSym=F NOpSet=  1 NOpAb=1 NOp=  1.
 FoFCou:  CnvScl= 1.00D+00 Thresh= 1.00D-12 IAcrcy=      10.
 PrismS was handed    97482780 working-precision words and  1275 shell-pairs
 FoFCou: LinMIO=F DoNuc=F BraDBF=F KetDBF=F HaveP=T PDBF=F HaveZ=T HaveW=F
         NIJTC =      15 NIJTAt=       0 NIJTCD=       0 NIJTT =      15
         IJTBeg=       1 IJTEnd=      15 KLTBeg=       1 KLTEnd=      15
         IPTBeg=       1 IPTEnd=      15 IPTBCv=       1 IPTECv=      15
         IZTBeg=       1 IZTEnd=      15 IZTBCv=       1 IZTECv=      15
         IWTBeg=      16 IWTEnd=      15 IWTBCv=      16 IWTECv=      15
         INTBeg=       1 INTEnd=       0 IFTBCv=       1 IFTECv=      15
 NCel replicated for PrismC:     1
 CoulSu:  requested number of processors reduced to:   4 ShMem   1 Linda.
 CoulSu-InSpLW:  IPartL=    0 NPrtUS=    4 NPrtUL=    1 DoSpLW=F IThBeg=    0 IThEnd=    3 NThAct=    4.
 CoulSu:  IncTry=  1024 NBBP=         813450 NTPThr=   100 NPartT=    4 Incr=        1024 LDynOK=F GPUOK=F.
 CoulSu:  NPrtUS=   4 ThrOK=T IAlg=2 LenDen=           0 LWGrdD=           0 DoCopy=F ISkipM=0
          DoSpLW=F IThBeg=    0 IThEnd=    3.
 Enter PrismC:  IPart=  0 JobTyp=22 DoJE=F Cont=F.
 PrismC:  IPart=     0 DynPar=T LinDyn=F Incr=        1024 UseFst=F UseS4=T ISplat=2.
 PrismC was handed    24349301 working-precision words and  1275 shell-pairs
 Enter PrismC:  IPart=  3 JobTyp=22 DoJE=F Cont=F.
 Enter PrismC:  IPart=  1 JobTyp=22 DoJE=F Cont=F.
 PrismC:  IPart=     3 DynPar=T LinDyn=F Incr=        1024 UseFst=F UseS4=T ISplat=2.
 PrismC was handed    24349301 working-precision words and  1275 shell-pairs
 PrismC:  IPart=     1 DynPar=T LinDyn=F Incr=        1024 UseFst=F UseS4=T ISplat=2.
 PrismC was handed    24349301 working-precision words and  1275 shell-pairs
 Enter PrismC:  IPart=  2 JobTyp=22 DoJE=F Cont=F.
 PrismC:  IPart=     2 DynPar=T LinDyn=F Incr=        1024 UseFst=F UseS4=T ISplat=2.
 PrismC was handed    24349301 working-precision words and  1275 shell-pairs
 IPart=  3 NShTot=      187930 NShNF=      187930 NShFF=           0 MinMC=       3
           NShCPU=      187930 NBCPU=        7351 AvBCPU=        25.6
           NShGPU=           0 NBGPU=           0 AvBGPU=         0.0
 IPart=  0 NShTot=      223564 NShNF=      223564 NShFF=           0 MinMC=       3
           NShCPU=      223564 NBCPU=        8030 AvBCPU=        27.8
           NShGPU=           0 NBGPU=           0 AvBGPU=         0.0
 IPart=  2 NShTot=      201887 NShNF=      201887 NShFF=           0 MinMC=       3
           NShCPU=      201887 NBCPU=        7354 AvBCPU=        27.5
           NShGPU=           0 NBGPU=           0 AvBGPU=         0.0
 IPart=  1 NShTot=      185240 NShNF=      185240 NShFF=           0 MinMC=       3
           NShCPU=      185240 NBCPU=        7226 AvBCPU=        25.6
           NShGPU=           0 NBGPU=           0 AvBGPU=         0.0
 CoulSu:  NxtVal=         861185 LenVP=       24349302 MinMC=       3.
 Polarizability after L703:
                1             2             3 
      1  0.107801D+02
      2  0.000000D+00  0.151724D+02
      3  0.000000D+00  0.165584D-01  0.198598D+02
 Dipole Derivatives after L703:
                 1             2             3             4             5 
      1  -0.391390D+00  0.000000D+00  0.000000D+00  0.222214D+00  0.000000D+00
      2   0.000000D+00 -0.536493D+00  0.279085D-02  0.000000D+00  0.882381D+00
      3   0.000000D+00 -0.513768D-03 -0.115495D+01  0.000000D+00 -0.204849D-02
                 6             7             8             9            10 
      1   0.000000D+00  0.838846D-01  0.000000D+00  0.000000D+00  0.852916D-01
      2  -0.151855D-02  0.000000D+00 -0.174493D+00  0.681300D-01  0.000000D+00
      3   0.122146D+01  0.000000D+00  0.137715D+00 -0.330075D-01  0.000000D+00
                11            12 
      1   0.000000D+00  0.000000D+00
      2  -0.171394D+00 -0.694023D-01
      3  -0.135153D+00 -0.335035D-01
 Hessian after L703:
                1             2             3             4             5 
      1  0.235388D-01
      2  0.000000D+00  0.867771D-01
      3  0.000000D+00 -0.200106D-03  0.106174D+01
      4 -0.713889D-01  0.000000D+00  0.000000D+00  0.216488D+00
      5  0.000000D+00 -0.122658D+00 -0.265484D-03  0.000000D+00  0.659943D+00
      6  0.000000D+00 -0.649885D-03 -0.966182D+00  0.000000D+00  0.228189D-02
      7  0.242348D-01  0.000000D+00  0.000000D+00 -0.727953D-01  0.000000D+00
      8  0.000000D+00  0.177792D-01  0.181853D-01  0.000000D+00 -0.269563D+00
      9  0.000000D+00  0.443050D-01 -0.484740D-01  0.000000D+00  0.889495D-01
     10  0.236154D-01  0.000000D+00  0.000000D+00 -0.723037D-01  0.000000D+00
     11  0.000000D+00  0.181017D-01 -0.177197D-01  0.000000D+00 -0.267722D+00
     12  0.000000D+00 -0.434550D-01 -0.470877D-01  0.000000D+00 -0.909660D-01
                6             7             8             9            10 
      6  0.118993D+01
      7  0.000000D+00  0.242502D-01
      8  0.878161D-01  0.000000D+00  0.272671D+00
      9 -0.110387D+00  0.000000D+00 -0.119514D+00  0.148703D+00
     10  0.000000D+00  0.243103D-01  0.000000D+00  0.000000D+00  0.243781D-01
     11 -0.894481D-01  0.000000D+00 -0.208878D-01 -0.137404D-01  0.000000D+00
     12 -0.113361D+00  0.000000D+00  0.135128D-01  0.101582D-01  0.000000D+00
               11            12 
     11  0.270508D+00
     12  0.120908D+00  0.150291D+00
 Leave Link  703 at Tue Jul  9 11:04:00 2024, MaxMem=    97648640 cpu:             108.8 elap:              26.8
 (Enter /cluster/software/Gaussian/g16_B.01/l716.exe)
 FrcOut:
 IF    =        44 IFX   =        56 IFXYZ =        68
 IFFX  =        80 IFFFX =       158 IFLen =        12
 IFFLen=        78 IFFFLn=         0 IEDerv=       158
 LEDerv=       629 IFroze=       957 ICStrt=     59150
 Dipole        = 1.51821920D-15-2.81671162D-03-1.05520067D+00
 DipoleDeriv   =-3.91390228D-01-2.27220196D-15-1.31973048D-15
                -1.04876049D-15-5.36493264D-01-5.13767787D-04
                 2.76253615D-15 2.79085294D-03-1.15495078D+00
                 2.22213985D-01 3.67941928D-16-2.68472546D-15
                -4.73674360D-15 8.82380575D-01-2.04849104D-03
                -6.77051703D-15-1.51855262D-03 1.22146175D+00
                 8.38846142D-02 5.69602268D-16 2.22667839D-15
                 3.77118685D-16-1.74493164D-01 1.37715485D-01
                -7.10545560D-16 6.81299847D-02-3.30075058D-02
                 8.52916283D-02 1.33465776D-15 1.77777755D-15
                 5.40838540D-15-1.71394147D-01-1.35153226D-01
                 4.71852644D-15-6.94022850D-02-3.35034662D-02
 Polarizability= 1.07801340D+01 3.13164806D-14 1.51724231D+01
                 5.64140058D-15 1.65584187D-02 1.98597966D+01
 PolarDeriv    =-5.01033743D-13 2.56044812D-04-3.46258849D-14
                 3.58298283D+00 9.55478754D-14-5.69964121D-13
                 1.56852852D-02-1.78963747D-13 1.37140404D-02
                -1.21977540D-13 2.59538909D+00 2.20756734D-02
                 3.45195781D+00-8.27110045D-14-2.73652571D+00
                -3.96827669D-13 5.86971594D-03 1.12242321D+01
                 3.90496738D-13-9.85680328D-03-7.42160220D-14
                -2.56456911D+00-8.04833798D-13-1.88403509D-12
                -3.18808666D-02 4.84021881D-13-1.29388794D-01
                 2.30183426D-13 4.70673763D+00 8.84747224D-03
                -2.39089104D+00 1.94967316D-14 9.65869262D+00
                 1.27752928D-12 3.36271809D-02-5.17138857D+00
                -6.27315975D-13 1.25900793D+00-6.53715461D-14
                -5.06393232D-01 5.22745576D-14-7.84014375D-14
                 9.87636671D-01-5.50222865D-13 6.81746470D+00
                 3.13192168D-13-3.64227733D+00 2.01048790D+00
                -5.21422228D-01 1.77943031D-13-3.44132901D+00
                -6.24379900D-13 2.57043586D+00-2.98171680D+00
                 7.33767899D-13-1.24940718D+00 1.74213453D-13
                -5.12020487D-01 6.57011365D-13 2.53240065D-12
                -9.71441090D-01 2.43122191D-13-6.70178995D+00
                -4.21398054D-13-3.65984939D+00-2.04141104D+00
                -5.39644544D-01-1.14728758D-13-3.48083791D+00
                -2.58364248D-13-2.60993275D+00-3.07112677D+00
 HyperPolar    =-4.45196264D-13-1.64858708D-02-4.15249116D-14
                 3.11187374D-01-7.85480774D+00 1.18009037D-13
                -4.39293450D+01-6.96905707D-14-2.98291557D-01
                -3.97560513D+01
 Quadrupole    = 7.53198977D-02 2.12590265D-01-2.87910163D-01
                -1.05490530D-14-3.40858249D-16 1.30672127D-02
 -------------------------------------------------------------------
 Center     Atomic                   Forces (Hartrees/Bohr)
 Number     Number              X              Y              Z
 -------------------------------------------------------------------
      1        8          -0.000000000   -0.001485941    0.000006009
      2        6           0.000000000    0.002077872   -0.000009023
      3        1           0.000000000   -0.000303433   -0.000756971
      4        1           0.000000000   -0.000288499    0.000759985
 -------------------------------------------------------------------
 Cartesian Forces:  Max     0.002077872 RMS     0.000808887
 Force constants in Cartesian coordinates: 
                1             2             3             4             5 
      1  0.235388D-01
      2  0.000000D+00  0.867771D-01
      3  0.000000D+00 -0.200106D-03  0.106174D+01
      4 -0.713889D-01  0.000000D+00  0.000000D+00  0.216488D+00
      5  0.000000D+00 -0.122658D+00 -0.265484D-03  0.000000D+00  0.659943D+00
      6  0.000000D+00 -0.649885D-03 -0.966182D+00  0.000000D+00  0.228189D-02
      7  0.242348D-01  0.000000D+00  0.000000D+00 -0.727953D-01  0.000000D+00
      8  0.000000D+00  0.177792D-01  0.181853D-01  0.000000D+00 -0.269563D+00
      9  0.000000D+00  0.443050D-01 -0.484740D-01  0.000000D+00  0.889495D-01
     10  0.236154D-01  0.000000D+00  0.000000D+00 -0.723037D-01  0.000000D+00
     11  0.000000D+00  0.181017D-01 -0.177197D-01  0.000000D+00 -0.267722D+00
     12  0.000000D+00 -0.434550D-01 -0.470877D-01  0.000000D+00 -0.909660D-01
                6             7             8             9            10 
      6  0.118993D+01
      7  0.000000D+00  0.242502D-01
      8  0.878161D-01  0.000000D+00  0.272671D+00
      9 -0.110387D+00  0.000000D+00 -0.119514D+00  0.148703D+00
     10  0.000000D+00  0.243103D-01  0.000000D+00  0.000000D+00  0.243781D-01
     11 -0.894481D-01  0.000000D+00 -0.208878D-01 -0.137404D-01  0.000000D+00
     12 -0.113361D+00  0.000000D+00  0.135128D-01  0.101582D-01  0.000000D+00
               11            12 
     11  0.270508D+00
     12  0.120908D+00  0.150291D+00
 Final forces over variables, Energy=-1.13922370D+02:
 -1.60880713D-07 1.78026753D-08 1.78026760D-08-3.41879592D-08
 -3.41879590D-08 6.83759182D-08 5.37191787D-16
 Leave Link  716 at Tue Jul  9 11:04:00 2024, MaxMem=    97648640 cpu:               0.4 elap:               0.0
 (Enter /cluster/software/Gaussian/g16_B.01/l106.exe)
 NDeriv=      6 NFrqRd=  0 NDerD0=      0 MskFDP=       0 MskDFD=       0 MskDF0=       0
 Re-enter D2Numr:  normal mode   2 step-down number 1
 Leave Link  106 at Tue Jul  9 11:04:00 2024, MaxMem=    97648640 cpu:               1.5 elap:               0.1
 (Enter /cluster/software/Gaussian/g16_B.01/l301.exe)
 Standard basis: CC-pVQZ (5D, 7F)
 Ernie: Thresh=  0.10000D-02 Tol=  0.10000D-05 Strict=F.
 Ernie:  6 primitive shells out of 90 were deleted.
   170 basis functions,   252 primitive gaussians,   210 cartesian basis functions
     8 alpha electrons        8 beta electrons
       nuclear repulsion energy        31.9316097514 Hartrees.
 IExCor=    0 DFT=F Ex=HF Corr=None ExCW=0 ScaHFX=  1.000000
 ScaDFX=  1.000000  1.000000  1.000000  1.000000 ScalE2=  1.000000  1.000000
 IRadAn=      5 IRanWt=     -1 IRanGd=            0 ICorTp=0 IEmpDi=  4
 NAtoms=    4 NActive=    4 NUniq=    4 SFac= 1.00D+00 NAtFMM=   60 NAOKFM=F Big=F
 Integral buffers will be    131072 words long.
 Raffenetti 1 integral format.
 Two-electron integral symmetry is turned off.
 Leave Link  301 at Tue Jul  9 11:04:00 2024, MaxMem=    97648640 cpu:               0.8 elap:               0.1
 (Enter /cluster/software/Gaussian/g16_B.01/l302.exe)
 NPDir=0 NMtPBC=     1 NCelOv=     1 NCel=       1 NClECP=     1 NCelD=      1
         NCelK=      1 NCelE2=     1 NClLst=     1 CellRange=     0.0.
 One-electron integrals computed using PRISM.
 PrsmSu:  requested number of processors reduced to:   4 ShMem   1 Linda.
 NBasis=   170 RedAO= T EigKep=  2.32D-04  NBF=   170
 NBsUse=   170 1.00D-06 EigRej= -1.00D+00 NBFU=   170
 Leave Link  302 at Tue Jul  9 11:04:00 2024, MaxMem=    97648640 cpu:               2.2 elap:               0.2
 (Enter /cluster/software/Gaussian/g16_B.01/l303.exe)
 DipDrv:  MaxL=1.
 Leave Link  303 at Tue Jul  9 11:04:00 2024, MaxMem=    97648640 cpu:               0.4 elap:               0.1
 (Enter /cluster/software/Gaussian/g16_B.01/l401.exe)
 Initial guess from the checkpoint file:  "inputFull_3q.chk"
 B after Tr=    -0.000000   -0.000000   -0.000683
         Rot=    1.000000    0.000000   -0.000000    0.000000 Ang=   0.00 deg.
 Guess basis will be translated and rotated to current coordinates.
 JPrj=2 DoOrth=T DoCkMO=T.
 Leave Link  401 at Tue Jul  9 11:04:00 2024, MaxMem=    97648640 cpu:               1.5 elap:               0.1
 (Enter /cluster/software/Gaussian/g16_B.01/l502.exe)
 Two-electron integral symmetry not used.
 Closed shell SCF:
 Using DIIS extrapolation, IDIIS=  1040.
 NGot=    97648640 LenX=    97555748 LenY=    97511207
 Requested convergence on RMS density matrix=1.00D-08 within 128 cycles.
 Requested convergence on MAX density matrix=1.00D-06.
 Requested convergence on             energy=1.00D-06.
 No special actions if energy rises.
 Fock matrices will be formed incrementally for  20 cycles.

 Cycle   1  Pass 1  IDiag  1:
 FoFJK:  IHMeth= 1 ICntrl=       0 DoSepK=F KAlg= 0 I1Cent=           0 FoldK=F
 IRaf= 990000000 NMat=       1 IRICut=       1 DoRegI=T DoRafI=F ISym2E= 0 IDoP0=0 IntGTp=1.
 FoFCou: FMM=F IPFlag=           0 FMFlag=      100000 FMFlg1=           0
         NFxFlg=           0 DoJE=F BraDBF=F KetDBF=F FulRan=T
         wScrn=  0.000000 ICntrl=         0 IOpCl=  0 I1Cent=           0 NGrid=           0
         NMat0=    1 NMatS0=      1 NMatT0=    0 NMatD0=    1 NMtDS0=    0 NMtDT0=    0
 Symmetry not used in FoFCou.
 E= -113.922359437049    
 DIIS: error= 3.83D-04 at cycle   1 NSaved=   1.
 NSaved= 1 IEnMin= 1 EnMin= -113.922359437049     IErMin= 1 ErrMin= 3.83D-04
 ErrMax= 3.83D-04  0.00D+00 EMaxC= 1.00D-01 BMatC= 4.62D-06 BMatP= 4.62D-06
 IDIUse=3 WtCom= 9.96D-01 WtEn= 3.83D-03
 Coeff-Com:  0.100D+01
 Coeff-En:   0.100D+01
 Coeff:      0.100D+01
 Gap=     2.588 Goal=   None    Shift=    0.000
 RMSDP=9.14D-06 MaxDP=2.34D-04              OVMax= 7.91D-04

 Cycle   2  Pass 1  IDiag  1:
 RMSU=  9.10D-06    CP:  1.00D+00
 E= -113.922363582969     Delta-E=       -0.000004145920 Rises=F Damp=F
 DIIS: error= 8.99D-05 at cycle   2 NSaved=   2.
 NSaved= 2 IEnMin= 2 EnMin= -113.922363582969     IErMin= 2 ErrMin= 8.99D-05
 ErrMax= 8.99D-05  0.00D+00 EMaxC= 1.00D-01 BMatC= 3.71D-07 BMatP= 4.62D-06
 IDIUse=1 WtCom= 1.00D+00 WtEn= 0.00D+00
 Coeff-Com: -0.105D-01 0.101D+01
 Coeff:     -0.105D-01 0.101D+01
 Gap=     0.556 Goal=   None    Shift=    0.000
 RMSDP=2.73D-06 MaxDP=5.43D-05 DE=-4.15D-06 OVMax= 2.49D-04

 Cycle   3  Pass 1  IDiag  1:
 RMSU=  2.29D-06    CP:  1.00D+00  1.16D+00
 E= -113.922363903350     Delta-E=       -0.000000320381 Rises=F Damp=F
 DIIS: error= 4.67D-05 at cycle   3 NSaved=   3.
 NSaved= 3 IEnMin= 3 EnMin= -113.922363903350     IErMin= 3 ErrMin= 4.67D-05
 ErrMax= 4.67D-05  0.00D+00 EMaxC= 1.00D-01 BMatC= 1.24D-07 BMatP= 3.71D-07
 IDIUse=1 WtCom= 1.00D+00 WtEn= 0.00D+00
 Coeff-Com: -0.695D-01 0.358D+00 0.711D+00
 Coeff:     -0.695D-01 0.358D+00 0.711D+00
 Gap=     0.556 Goal=   None    Shift=    0.000
 RMSDP=1.18D-06 MaxDP=3.37D-05 DE=-3.20D-07 OVMax= 1.28D-04

 Cycle   4  Pass 1  IDiag  1:
 RMSU=  1.00D-06    CP:  1.00D+00  1.20D+00  7.94D-01
 E= -113.922364008587     Delta-E=       -0.000000105237 Rises=F Damp=F
 DIIS: error= 1.21D-05 at cycle   4 NSaved=   4.
 NSaved= 4 IEnMin= 4 EnMin= -113.922364008587     IErMin= 4 ErrMin= 1.21D-05
 ErrMax= 1.21D-05  0.00D+00 EMaxC= 1.00D-01 BMatC= 6.66D-09 BMatP= 1.24D-07
 IDIUse=1 WtCom= 1.00D+00 WtEn= 0.00D+00
 Coeff-Com:  0.606D-02-0.124D+00 0.556D-02 0.111D+01
 Coeff:      0.606D-02-0.124D+00 0.556D-02 0.111D+01
 Gap=     0.556 Goal=   None    Shift=    0.000
 RMSDP=4.36D-07 MaxDP=1.34D-05 DE=-1.05D-07 OVMax= 4.05D-05

 Cycle   5  Pass 1  IDiag  1:
 RMSU=  1.78D-07    CP:  1.00D+00  1.22D+00  8.75D-01  1.32D+00
 E= -113.922364017823     Delta-E=       -0.000000009237 Rises=F Damp=F
 DIIS: error= 3.26D-06 at cycle   5 NSaved=   5.
 NSaved= 5 IEnMin= 5 EnMin= -113.922364017823     IErMin= 5 ErrMin= 3.26D-06
 ErrMax= 3.26D-06  0.00D+00 EMaxC= 1.00D-01 BMatC= 4.08D-10 BMatP= 6.66D-09
 IDIUse=1 WtCom= 1.00D+00 WtEn= 0.00D+00
 Coeff-Com:  0.628D-02-0.439D-01-0.349D-01 0.710D-01 0.100D+01
 Coeff:      0.628D-02-0.439D-01-0.349D-01 0.710D-01 0.100D+01
 Gap=     0.556 Goal=   None    Shift=    0.000
 RMSDP=1.71D-07 MaxDP=5.73D-06 DE=-9.24D-09 OVMax= 1.05D-05

 Cycle   6  Pass 1  IDiag  1:
 RMSU=  8.66D-08    CP:  1.00D+00  1.22D+00  8.76D-01  1.46D+00  1.22D+00
 E= -113.922364018449     Delta-E=       -0.000000000625 Rises=F Damp=F
 DIIS: error= 6.86D-07 at cycle   6 NSaved=   6.
 NSaved= 6 IEnMin= 6 EnMin= -113.922364018449     IErMin= 6 ErrMin= 6.86D-07
 ErrMax= 6.86D-07  0.00D+00 EMaxC= 1.00D-01 BMatC= 3.67D-11 BMatP= 4.08D-10
 IDIUse=1 WtCom= 1.00D+00 WtEn= 0.00D+00
 Coeff-Com: -0.194D-02 0.181D-01 0.173D-01-0.112D+00-0.213D+00 0.129D+01
 Coeff:     -0.194D-02 0.181D-01 0.173D-01-0.112D+00-0.213D+00 0.129D+01
 Gap=     0.556 Goal=   None    Shift=    0.000
 RMSDP=4.42D-08 MaxDP=1.36D-06 DE=-6.25D-10 OVMax= 4.62D-06

 Cycle   7  Pass 1  IDiag  1:
 RMSU=  1.69D-08    CP:  1.00D+00  1.22D+00  8.72D-01  1.47D+00  1.35D+00
                    CP:  1.32D+00
 E= -113.922364018521     Delta-E=       -0.000000000072 Rises=F Damp=F
 DIIS: error= 2.19D-07 at cycle   7 NSaved=   7.
 NSaved= 7 IEnMin= 7 EnMin= -113.922364018521     IErMin= 7 ErrMin= 2.19D-07
 ErrMax= 2.19D-07  0.00D+00 EMaxC= 1.00D-01 BMatC= 2.73D-12 BMatP= 3.67D-11
 IDIUse=1 WtCom= 1.00D+00 WtEn= 0.00D+00
 Coeff-Com:  0.811D-03-0.877D-02-0.544D-02 0.591D-01 0.625D-01-0.730D+00
 Coeff-Com:  0.162D+01
 Coeff:      0.811D-03-0.877D-02-0.544D-02 0.591D-01 0.625D-01-0.730D+00
 Coeff:      0.162D+01
 Gap=     0.556 Goal=   None    Shift=    0.000
 RMSDP=1.89D-08 MaxDP=5.84D-07 DE=-7.22D-11 OVMax= 2.21D-06

 Cycle   8  Pass 1  IDiag  1:
 RMSU=  4.95D-09    CP:  1.00D+00  1.22D+00  8.73D-01  1.46D+00  1.35D+00
                    CP:  1.33D+00  1.77D+00
 E= -113.922364018530     Delta-E=       -0.000000000009 Rises=F Damp=F
 DIIS: error= 4.58D-08 at cycle   8 NSaved=   8.
 NSaved= 8 IEnMin= 8 EnMin= -113.922364018530     IErMin= 8 ErrMin= 4.58D-08
 ErrMax= 4.58D-08  0.00D+00 EMaxC= 1.00D-01 BMatC= 1.37D-13 BMatP= 2.73D-12
 IDIUse=1 WtCom= 1.00D+00 WtEn= 0.00D+00
 Coeff-Com: -0.174D-03 0.203D-02 0.131D-02-0.158D-01-0.982D-02 0.198D+00
 Coeff-Com: -0.671D+00 0.149D+01
 Coeff:     -0.174D-03 0.203D-02 0.131D-02-0.158D-01-0.982D-02 0.198D+00
 Coeff:     -0.671D+00 0.149D+01
 Gap=     0.556 Goal=   None    Shift=    0.000
 RMSDP=7.62D-09 MaxDP=2.19D-07 DE=-8.73D-12 OVMax= 5.61D-07

 SCF Done:  E(RHF) =  -113.922364019     A.U. after    8 cycles
            NFock=  8  Conv=0.76D-08     -V/T= 2.0001
 KE= 1.139155801081D+02 PE=-3.325266919742D+02 EE= 7.275713809622D+01
 Leave Link  502 at Tue Jul  9 11:04:07 2024, MaxMem=    97648640 cpu:             110.2 elap:               6.9
 (Enter /cluster/software/Gaussian/g16_B.01/l801.exe)
 Range of M.O.s used for correlation:     1   170
 NBasis=   170 NAE=     8 NBE=     8 NFC=     0 NFV=     0
 NROrb=    170 NOA=     8 NOB=     8 NVA=   162 NVB=   162

 **** Warning!!: The largest alpha MO coefficient is  0.16376867D+02

 Leave Link  801 at Tue Jul  9 11:04:07 2024, MaxMem=    97648640 cpu:               0.3 elap:               0.0
 (Enter /cluster/software/Gaussian/g16_B.01/l1002.exe)
 Minotr:  Closed shell wavefunction.
          Direct CPHF calculation.
          Differentiating once with respect to electric field.
                with respect to dipole field.
          Electric field/nuclear overlap derivatives assumed to be zero.
          Requested convergence is 1.0D-08 RMS, and 1.0D-07 maximum.
          Secondary convergence is 1.0D-12 RMS, and 1.0D-12 maximum.
          NewPWx=F KeepS1=T KeepF1=T KeepIn=T MapXYZ=F SortEE=F KeepMc=T.
 Two-electron integral symmetry not used.
          MDV=      97648640 using IRadAn=       4.
          Solving linear equations simultaneously, MaxMat=     384.
          There are     3 degrees of freedom in the 1st order CPHF.  IDoFFX=0 NUNeed=     3.
      3 vectors produced by pass  0 Test12= 4.32D-14 3.33D-08 XBig12= 5.17D+00 1.49D+00.
 AX will form     3 AO Fock derivatives at one time.
 FoFJK:  IHMeth= 1 ICntrl=       0 DoSepK=F KAlg= 0 I1Cent=           0 FoldK=F
 IRaf= 990000000 NMat=       3 IRICut=       1 DoRegI=T DoRafI=F ISym2E= 0 IDoP0=0 IntGTp=1.
 FoFCou: FMM=F IPFlag=           0 FMFlag=      100000 FMFlg1=           0
         NFxFlg=           0 DoJE=F BraDBF=F KetDBF=F FulRan=T
         wScrn=  0.000000 ICntrl=         0 IOpCl=  0 I1Cent=           0 NGrid=           0
         NMat0=    3 NMatS0=      3 NMatT0=    0 NMatD0=    3 NMtDS0=    0 NMtDT0=    0
 Symmetry not used in FoFCou.
      3 vectors produced by pass  1 Test12= 4.32D-14 3.33D-08 XBig12= 6.96D-01 2.32D-01.
      3 vectors produced by pass  2 Test12= 4.32D-14 3.33D-08 XBig12= 6.20D-02 9.48D-02.
      3 vectors produced by pass  3 Test12= 4.32D-14 3.33D-08 XBig12= 2.35D-03 1.89D-02.
      3 vectors produced by pass  4 Test12= 4.32D-14 3.33D-08 XBig12= 8.54D-05 3.68D-03.
      3 vectors produced by pass  5 Test12= 4.32D-14 3.33D-08 XBig12= 8.44D-06 1.07D-03.
      3 vectors produced by pass  6 Test12= 4.32D-14 3.33D-08 XBig12= 1.03D-07 9.55D-05.
      3 vectors produced by pass  7 Test12= 4.32D-14 3.33D-08 XBig12= 1.30D-09 1.13D-05.
      3 vectors produced by pass  8 Test12= 4.32D-14 3.33D-08 XBig12= 1.35D-11 1.01D-06.
      1 vectors produced by pass  9 Test12= 4.32D-14 3.33D-08 XBig12= 3.39D-13 2.08D-07.
 InvSVY:  IOpt=1 It=  1 EMax= 2.22D-16
 Solved reduced A of dimension    28 with     3 vectors.
 End of Minotr F.D. properties file   721 does not exist.
 End of Minotr F.D. properties file   722 does not exist.
 End of Minotr F.D. properties file   788 does not exist.
 Leave Link 1002 at Tue Jul  9 11:04:17 2024, MaxMem=    97648640 cpu:             147.9 elap:               9.3
 (Enter /cluster/software/Gaussian/g16_B.01/l1101.exe)
 Using compressed storage, NAtomX=     4.
 Will process      5 centers per pass.
 PrsmSu:  requested number of processors reduced to:   2 ShMem   1 Linda.
 PrsmSu:  requested number of processors reduced to:   9 ShMem   1 Linda.
 Leave Link 1101 at Tue Jul  9 11:04:17 2024, MaxMem=    97648640 cpu:               1.5 elap:               0.2
 (Enter /cluster/software/Gaussian/g16_B.01/l1102.exe)
 Symmetrizing basis deriv contribution to polar:
 IMax=3 JMax=2 DiffMx= 0.00D+00
 Leave Link 1102 at Tue Jul  9 11:04:17 2024, MaxMem=    97648640 cpu:               0.4 elap:               0.1
 (Enter /cluster/software/Gaussian/g16_B.01/l1110.exe)
 Forming Gx(P) for the SCF density, NAtomX=     4.
 Integral derivatives from FoFJK, PRISM(SPDF).
 Do as many integral derivatives as possible in FoFJK.
 G2DrvN: MDV=      97648192.
 G2DrvN: will do     3 centers at a time, making    2 passes.
 Estimated number of processors is:   10
 G2DrvN:  IPasSy=1 do centers    0 through    2.
 PxScal for G2LodP:  IOpCl= 0 ISclPx=1 IMOff=     1 NMtTot=     4 NTT=   14535 ScalPx= 2.48D+00
 Calling FoFCou, ICntrl=  3107 FMM=F I1Cent=   0 AccDes= 0.00D+00.
 FoFJK:  IHMeth= 1 ICntrl=    3107 DoSepK=F KAlg= 0 I1Cent=           0 FoldK=F
 IRaf=         0 NMat=       1 IRICut=       1 DoRegI=T DoRafI=F ISym2E= 0 IDoP0=0 IntGTp=1.
 FoFCou: FMM=F IPFlag=           0 FMFlag=      100000 FMFlg1=           0
         NFxFlg=           0 DoJE=F BraDBF=F KetDBF=F FulRan=T
         wScrn=  0.000000 ICntrl=      3107 IOpCl=  0 I1Cent=           0 NGrid=           0
         NMat0=    1 NMatS0=      1 NMatT0=    0 NMatD0=    4 NMtDS0=    3 NMtDT0=    0
 Symmetry not used in FoFCou.
 CoulSu:  requested number of processors reduced to:  10 ShMem   1 Linda.
 G2DrvN:  IPasSy=1 do centers    3 through    4.
 PxScal for G2LodP:  IOpCl= 0 ISclPx=1 IMOff=     1 NMtTot=     4 NTT=   14535 ScalPx= 2.48D+00
 Calling FoFCou, ICntrl=  3107 FMM=F I1Cent=   0 AccDes= 0.00D+00.
 CoulSu:  requested number of processors reduced to:  10 ShMem   1 Linda.
 End of G2Drv F.D. properties file   721 does not exist.
 End of G2Drv F.D. properties file   722 does not exist.
 End of G2Drv F.D. properties file   788 does not exist.
 Leave Link 1110 at Tue Jul  9 11:04:28 2024, MaxMem=    97648640 cpu:             114.6 elap:              11.3
 (Enter /cluster/software/Gaussian/g16_B.01/l1002.exe)
 Minotr:  Closed shell wavefunction.
          IDoAtm=1111
          Direct CPHF calculation.
          Differentiating once with respect to electric field.
                with respect to dipole field.
          Differentiating once with respect to nuclear coordinates.
          Requested convergence is 1.0D-08 RMS, and 1.0D-07 maximum.
          Secondary convergence is 1.0D-12 RMS, and 1.0D-12 maximum.
          NewPWx=T KeepS1=F KeepF1=F KeepIn=T MapXYZ=F SortEE=F KeepMc=T.
 Two-electron integral symmetry not used.
          MDV=      97648640 using IRadAn=       4.
          Solving linear equations simultaneously, MaxMat=     384.
 FoF2E skips out because all densities are zero.
 FoFJK:  IHMeth= 1 ICntrl=       0 DoSepK=F KAlg= 0 I1Cent=           0 FoldK=F
 IRaf= 990000000 NMat=       4 IRICut=       1 DoRegI=T DoRafI=F ISym2E= 0 IDoP0=0 IntGTp=1.
 FoFCou: FMM=F IPFlag=           0 FMFlag=      100000 FMFlg1=           0
         NFxFlg=           0 DoJE=F BraDBF=F KetDBF=F FulRan=T
         wScrn=  0.000000 ICntrl=         0 IOpCl=  0 I1Cent=           0 NGrid=           0
         NMat0=    4 NMatS0=      4 NMatT0=    0 NMatD0=    4 NMtDS0=    0 NMtDT0=    0
 Symmetry not used in FoFCou.
          There are    15 degrees of freedom in the 1st order CPHF.  IDoFFX=5 NUNeed=    15.
 Will reuse    3 saved solutions.
      9 vectors produced by pass  0 Test12= 8.64D-15 6.67D-09 XBig12= 6.15D-02 9.01D-02.
 AX will form     3 AO Fock derivatives at one time.
      9 vectors produced by pass  1 Test12= 8.64D-15 6.67D-09 XBig12= 1.04D-02 4.73D-02.
      9 vectors produced by pass  2 Test12= 8.64D-15 6.67D-09 XBig12= 2.27D-04 5.73D-03.
      9 vectors produced by pass  3 Test12= 8.64D-15 6.67D-09 XBig12= 2.24D-06 4.64D-04.
      9 vectors produced by pass  4 Test12= 8.64D-15 6.67D-09 XBig12= 2.50D-08 5.75D-05.
      9 vectors produced by pass  5 Test12= 8.64D-15 6.67D-09 XBig12= 2.24D-10 5.46D-06.
      9 vectors produced by pass  6 Test12= 8.64D-15 6.67D-09 XBig12= 2.82D-12 6.53D-07.
      5 vectors produced by pass  7 Test12= 8.64D-15 6.67D-09 XBig12= 1.89D-14 2.94D-08.
 InvSVY:  IOpt=1 It=  1 EMax= 8.88D-16
 Solved reduced A of dimension    68 with     9 vectors.
 FullF1:  Do perturbations      1 to       3.
 Isotropic polarizability for W=    0.000000       15.29 Bohr**3.
 FullF1:  Do perturbations      1 to       3.
 FullF1:  Do perturbations      4 to       6.
 End of Minotr F.D. properties file   721 does not exist.
 End of Minotr F.D. properties file   722 does not exist.
 End of Minotr F.D. properties file   788 does not exist.
 Leave Link 1002 at Tue Jul  9 11:04:58 2024, MaxMem=    97648640 cpu:             466.9 elap:              29.3
 (Enter /cluster/software/Gaussian/g16_B.01/l601.exe)
 Copying SCF densities to generalized density rwf, IOpCl= 0 IROHF=0.

 **********************************************************************

            Population analysis using the SCF Density.

 **********************************************************************

 Alpha  occ. eigenvalues --  -20.57268 -11.33217  -1.42382  -0.86913  -0.70168
 Alpha  occ. eigenvalues --   -0.66041  -0.54884  -0.43968
 Alpha virt. eigenvalues --    0.11640   0.12226   0.17653   0.21806   0.33651
 Alpha virt. eigenvalues --    0.34427   0.34589   0.46828   0.47894   0.54125
 Alpha virt. eigenvalues --    0.54219   0.62880   0.65258   0.67623   0.74371
 Alpha virt. eigenvalues --    0.75010   0.81986   0.86876   0.90677   0.95548
 Alpha virt. eigenvalues --    1.02564   1.07801   1.11983   1.14137   1.22320
 Alpha virt. eigenvalues --    1.34149   1.46293   1.47109   1.50767   1.54374
 Alpha virt. eigenvalues --    1.63064   1.63102   1.73595   1.78907   1.87786
 Alpha virt. eigenvalues --    1.92431   2.02220   2.03949   2.04785   2.07593
 Alpha virt. eigenvalues --    2.10940   2.13715   2.28661   2.36497   2.37882
 Alpha virt. eigenvalues --    2.37913   2.48115   2.58431   2.61049   2.66452
 Alpha virt. eigenvalues --    2.66669   2.79051   2.81071   2.88171   2.90597
 Alpha virt. eigenvalues --    3.09821   3.10473   3.20102   3.22217   3.42916
 Alpha virt. eigenvalues --    3.48471   3.57894   3.62501   3.67554   3.70385
 Alpha virt. eigenvalues --    3.72557   3.74759   3.89744   4.05307   4.05323
 Alpha virt. eigenvalues --    4.13139   4.33467   4.38100   4.39986   4.58110
 Alpha virt. eigenvalues --    4.61184   4.70748   4.73115   5.05569   5.08082
 Alpha virt. eigenvalues --    5.37906   5.41959   5.51280   5.53868   5.67911
 Alpha virt. eigenvalues --    5.72572   5.83777   6.01715   6.03637   6.11548
 Alpha virt. eigenvalues --    6.19870   6.26360   6.27385   6.28010   6.33805
 Alpha virt. eigenvalues --    6.36396   6.40765   6.50320   6.63049   6.73519
 Alpha virt. eigenvalues --    6.76415   6.78490   6.92583   7.01587   7.22178
 Alpha virt. eigenvalues --    7.49035   7.58340   7.71391   7.71579   7.75010
 Alpha virt. eigenvalues --    7.81201   7.85010   7.87502   7.97012   8.04693
 Alpha virt. eigenvalues --    8.06799   8.27865   8.30736   8.46851   8.50049
 Alpha virt. eigenvalues --    8.53396   8.58222   8.77563   8.87622   8.88795
 Alpha virt. eigenvalues --    8.98792   9.29764   9.35278   9.37739   9.45285
 Alpha virt. eigenvalues --    9.59093   9.67537   9.92457  10.16255  10.27180
 Alpha virt. eigenvalues --   10.30136  10.36239  10.57078  10.63429  10.72407
 Alpha virt. eigenvalues --   10.75189  10.95035  11.12057  11.26407  11.42389
 Alpha virt. eigenvalues --   11.59758  11.61041  11.62129  11.83661  11.99871
 Alpha virt. eigenvalues --   12.23128  12.37527  12.60224  12.76624  12.91389
 Alpha virt. eigenvalues --   12.98753  13.37061  13.92820  14.48080  14.68461
 Alpha virt. eigenvalues --   25.94025  42.80952
          Condensed to atoms (all electrons):
               1          2          3          4
     1  O    7.841433   0.684985  -0.080149  -0.080149
     2  C    0.684985   4.197251   0.393813   0.393813
     3  H   -0.080149   0.393813   0.819330  -0.150984
     4  H   -0.080149   0.393813  -0.150984   0.819330
 Mulliken charges:
               1
     1  O   -0.366120
     2  C    0.330139
     3  H    0.017991
     4  H    0.017991
 Sum of Mulliken charges =  -0.00000
 Mulliken charges with hydrogens summed into heavy atoms:
               1
     1  O   -0.366120
     2  C    0.366120
 APT charges:
               1
     1  O   -0.694745
     2  C    0.777824
     3  H   -0.041540
     4  H   -0.041540
 Sum of APT charges =  -0.00000
 APT charges with hydrogens summed into heavy atoms:
               1
     1  O   -0.694745
     2  C    0.694745
 Electronic spatial extent (au):  <R**2>=             59.0246
 Charge=             -0.0000 electrons
 Dipole moment (field-independent basis, Debye):
    X=              0.0000    Y=              0.0000    Z=             -2.6886  Tot=              2.6886
 Quadrupole moment (field-independent basis, Debye-Ang):
   XX=            -11.5959   YY=            -11.4342   ZZ=            -12.0624
   XY=             -0.0000   XZ=             -0.0000   YZ=              0.0000
 Traceless Quadrupole moment (field-independent basis, Debye-Ang):
   XX=              0.1016   YY=              0.2633   ZZ=             -0.3649
   XY=             -0.0000   XZ=             -0.0000   YZ=              0.0000
 Octapole moment (field-independent basis, Debye-Ang**2):
  XXX=              0.0000  YYY=              0.0000  ZZZ=              0.2108  XYY=              0.0000
  XXY=              0.0000  XXZ=              0.4586  XZZ=              0.0000  YZZ=              0.0000
  YYZ=             -0.5794  XYZ=             -0.0000
 Hexadecapole moment (field-independent basis, Debye-Ang**3):
 XXXX=            -10.0962 YYYY=            -17.3239 ZZZZ=            -43.4952 XXXY=             -0.0000
 XXXZ=             -0.0000 YYYX=             -0.0000 YYYZ=              0.0000 ZZZX=             -0.0000
 ZZZY=              0.0000 XXYY=             -4.9114 XXZZ=             -8.8745 YYZZ=             -9.7116
 XXYZ=              0.0000 YYXZ=              0.0000 ZZXY=             -0.0000
 N-N= 3.193160975138D+01 E-N=-3.325266918707D+02  KE= 1.139155801081D+02
  Exact polarizability:  10.784   0.000  15.159   0.000  -0.000  19.916
 Approx polarizability:  10.440   0.000  12.356   0.000  -0.000  17.400
 No NMR shielding tensors so no spin-rotation constants.
 Leave Link  601 at Tue Jul  9 11:04:58 2024, MaxMem=    97648640 cpu:               2.7 elap:               0.2
 (Enter /cluster/software/Gaussian/g16_B.01/l701.exe)
 SCFChk:  SCF convergence  7.62D-09 required  1.00D-08
 ... and contract with generalized density number  0.
 Compute integral second derivatives.
 Entering OneElI...
 Calculate overlap and kinetic energy integrals
    NBasis = 210  MinDer = 2  MaxDer = 2
 Requested accuracy = 0.1000D-12
 PrsmSu:  requested number of processors reduced to:   1 ShMem   1 Linda.
 PrmmSu-InSpLW:  IPartL=    0 NPrtUS=    1 NPrtUL=    1 DoSpLW=F IThBeg=    0 IThEnd=    0 NThAct=    1.
 PrSmSu:  IncTry=   512 NBBP=           1275 NTPThr=   100 NPartT=    1 Incr=          12 LDynOK=F GPUOK=F.
 PrsmSu:  NPrtUS=   1 ThrOK=F IAlg=2 LenDen=           0 ISkipM=0 DoSpLW=F IThBeg=    0 IThEnd=    0.
 Prism:   IPart=     0 DynPar=F LinDyn=F Incr=          12.
 PRISM was handed    97371836 working-precision words and  1275 shell-pairs
 IPart=  0 NShTot=        1275 NBatch=          77 AvBLen=        16.6
 PrSmSu:  NxtVal=             13.
 Entering OneElI...
 Calculate potential energy integrals
    NBasis = 210  MinDer = 2  MaxDer = 2
 Requested accuracy = 0.1000D-12
 PrsmSu:  requested number of processors reduced to:   4 ShMem   1 Linda.
 PrmmSu-InSpLW:  IPartL=    0 NPrtUS=    4 NPrtUL=    1 DoSpLW=F IThBeg=    0 IThEnd=    3 NThAct=    4.
 PrSmSu:  IncTry=   512 NBBP=           5092 NTPThr=   100 NPartT=    4 Incr=          12 LDynOK=F GPUOK=F.
 PrsmSu:  NPrtUS=   4 ThrOK=T IAlg=2 LenDen=           0 ISkipM=0 DoSpLW=F IThBeg=    0 IThEnd=    3.
 Prism:   IPart=     0 DynPar=F LinDyn=F Incr=          12.
 PRISM was handed    24334039 working-precision words and  1273 shell-pairs
 PRISM was handed    24334039 working-precision words and  1273 shell-pairs
 PRISM was handed    24334039 working-precision words and  1273 shell-pairs
 PRISM was handed    24334039 working-precision words and  1273 shell-pairs
 IPart=  2 NShTot=        1236 NBatch=         309 AvBLen=         4.0
 IPart=  0 NShTot=        1332 NBatch=         333 AvBLen=         4.0
 IPart=  1 NShTot=        1300 NBatch=         325 AvBLen=         4.0
 IPart=  3 NShTot=        1224 NBatch=         306 AvBLen=         4.0
 PrSmSu:  NxtVal=             49.
 Polarizability after L701:
                1             2             3 
      1  0.107841D+02
      2  0.000000D+00  0.151589D+02
      3  0.000000D+00  0.000000D+00  0.199162D+02
 Dipole Derivatives after L701:
                 1             2             3             4             5 
      1  -0.391718D+00  0.000000D+00  0.000000D+00  0.223028D+00  0.000000D+00
      2   0.000000D+00 -0.536607D+00  0.000000D+00  0.000000D+00  0.885094D+00
      3   0.000000D+00  0.000000D+00 -0.115591D+01  0.000000D+00  0.000000D+00
                 6             7             8             9            10 
      1   0.000000D+00  0.843448D-01  0.000000D+00  0.000000D+00  0.843448D-01
      2   0.000000D+00  0.000000D+00 -0.174243D+00  0.713987D-01  0.000000D+00
      3   0.122535D+01  0.000000D+00  0.135433D+00 -0.347207D-01  0.000000D+00
                11            12 
      1   0.000000D+00  0.000000D+00
      2  -0.174243D+00 -0.713987D-01
      3  -0.135433D+00 -0.347207D-01
 Hessian after L701:
                1             2             3             4             5 
      1  0.130628D+02
      2  0.000000D+00  0.105958D+02
      3  0.000000D+00  0.000000D+00 -0.911265D+00
      4 -0.131961D+02  0.000000D+00  0.000000D+00  0.180066D+02
      5  0.000000D+00 -0.117102D+02  0.000000D+00  0.000000D+00  0.143107D+02
      6  0.000000D+00  0.000000D+00  0.141869D+01  0.000000D+00  0.000000D+00
      7  0.666566D-01  0.000000D+00  0.000000D+00 -0.240526D+01  0.000000D+00
      8  0.000000D+00  0.557201D+00 -0.274910D+00  0.000000D+00 -0.130025D+01
      9  0.000000D+00 -0.320220D+00 -0.253713D+00  0.000000D+00 -0.906624D+00
     10  0.666566D-01  0.000000D+00  0.000000D+00 -0.240526D+01  0.000000D+00
     11  0.000000D+00  0.557201D+00  0.274910D+00  0.000000D+00 -0.130025D+01
     12  0.000000D+00  0.320220D+00 -0.253713D+00  0.000000D+00  0.906624D+00
                6             7             8             9            10 
      6  0.235535D+01
      7  0.000000D+00  0.204966D+01
      8 -0.803278D+00  0.000000D+00  0.128807D+01
      9 -0.188702D+01  0.000000D+00  0.115252D+01  0.182182D+01
     10  0.000000D+00  0.288951D+00  0.000000D+00  0.000000D+00  0.204966D+01
     11  0.803278D+00  0.000000D+00 -0.545022D+00  0.743283D-01  0.000000D+00
     12 -0.188702D+01  0.000000D+00 -0.743283D-01  0.318909D+00  0.000000D+00
               11            12 
     11  0.128807D+01
     12 -0.115252D+01  0.182182D+01
 Leave Link  701 at Tue Jul  9 11:04:58 2024, MaxMem=    97648640 cpu:               1.0 elap:               0.3
 (Enter /cluster/software/Gaussian/g16_B.01/l702.exe)
 L702 exits ... SP integral derivatives will be done elsewhere.
 Leave Link  702 at Tue Jul  9 11:04:58 2024, MaxMem=    97648640 cpu:               0.3 elap:               0.0
 (Enter /cluster/software/Gaussian/g16_B.01/l703.exe)
 Integral derivatives from FoFJK, PRISM(SPDF).
 Compute integral second derivatives, UseDBF=F ICtDFT=           0.
 ICntrl=    100127.
 Calling FoFJK, ICntrl=    100127 FMM=F ISym2X=0 I1Cent= 0 IOpClX= 0 NMat=1 NMatS=1 NMatT=0.
 FoFJK:  IHMeth= 1 ICntrl=  100127 DoSepK=F KAlg= 0 I1Cent=           0 FoldK=F
 IRaf=         0 NMat=       1 IRICut=       1 DoRegI=T DoRafI=F ISym2E= 0 IDoP0=0 IntGTp=1.
 FoFCou: FMM=F IPFlag=           0 FMFlag=      100000 FMFlg1=         800
         NFxFlg=           0 DoJE=F BraDBF=F KetDBF=F FulRan=T
         wScrn=  0.000000 ICntrl=    100127 IOpCl=  0 I1Cent=           0 NGrid=           0
         NMat0=    1 NMatS0=      1 NMatT0=    0 NMatD0=    1 NMtDS0=    0 NMtDT0=    0
 Symmetry not used in FoFCou.
 FoFCou:  KetSym=F NOpSet=  1 NOpAb=1 NOp=  1.
 FoFCou:  CnvScl= 1.00D+00 Thresh= 1.00D-12 IAcrcy=      10.
 PrismS was handed    97482780 working-precision words and  1275 shell-pairs
 FoFCou: LinMIO=F DoNuc=F BraDBF=F KetDBF=F HaveP=T PDBF=F HaveZ=T HaveW=F
         NIJTC =      15 NIJTAt=       0 NIJTCD=       0 NIJTT =      15
         IJTBeg=       1 IJTEnd=      15 KLTBeg=       1 KLTEnd=      15
         IPTBeg=       1 IPTEnd=      15 IPTBCv=       1 IPTECv=      15
         IZTBeg=       1 IZTEnd=      15 IZTBCv=       1 IZTECv=      15
         IWTBeg=      16 IWTEnd=      15 IWTBCv=      16 IWTECv=      15
         INTBeg=       1 INTEnd=       0 IFTBCv=       1 IFTECv=      15
 NCel replicated for PrismC:     1
 CoulSu:  requested number of processors reduced to:   4 ShMem   1 Linda.
 CoulSu-InSpLW:  IPartL=    0 NPrtUS=    4 NPrtUL=    1 DoSpLW=F IThBeg=    0 IThEnd=    3 NThAct=    4.
 CoulSu:  IncTry=  1024 NBBP=         813450 NTPThr=   100 NPartT=    4 Incr=        1024 LDynOK=F GPUOK=F.
 CoulSu:  NPrtUS=   4 ThrOK=T IAlg=2 LenDen=           0 LWGrdD=           0 DoCopy=F ISkipM=0
          DoSpLW=F IThBeg=    0 IThEnd=    3.
 Enter PrismC:  IPart=  0 JobTyp=22 DoJE=F Cont=F.
 PrismC:  IPart=     0 DynPar=T LinDyn=F Incr=        1024 UseFst=F UseS4=T ISplat=2.
 PrismC was handed    24349301 working-precision words and  1275 shell-pairs
 Enter PrismC:  IPart=  2 JobTyp=22 DoJE=F Cont=F.
 Enter PrismC:  IPart=  3 JobTyp=22 DoJE=F Cont=F.
 PrismC:  IPart=     2 DynPar=T LinDyn=F Incr=        1024 UseFst=F UseS4=T ISplat=2.
 Enter PrismC:  IPart=  1 JobTyp=22 DoJE=F Cont=F.
 PrismC:  IPart=     3 DynPar=T LinDyn=F Incr=        1024 UseFst=F UseS4=T ISplat=2.
 PrismC was handed    24349301 working-precision words and  1275 shell-pairs
 PrismC was handed    24349301 working-precision words and  1275 shell-pairs
 PrismC:  IPart=     1 DynPar=T LinDyn=F Incr=        1024 UseFst=F UseS4=T ISplat=2.
 PrismC was handed    24349301 working-precision words and  1275 shell-pairs
 IPart=  2 NShTot=      198849 NShNF=      198849 NShFF=           0 MinMC=       3
           NShCPU=      198849 NBCPU=        7305 AvBCPU=        27.2
           NShGPU=           0 NBGPU=           0 AvBGPU=         0.0
 IPart=  3 NShTot=      195161 NShNF=      195161 NShFF=           0 MinMC=       3
           NShCPU=      195161 NBCPU=        7626 AvBCPU=        25.6
           NShGPU=           0 NBGPU=           0 AvBGPU=         0.0
 IPart=  0 NShTot=      208071 NShNF=      208071 NShFF=           0 MinMC=       3
           NShCPU=      208071 NBCPU=        7816 AvBCPU=        26.6
           NShGPU=           0 NBGPU=           0 AvBGPU=         0.0
 IPart=  1 NShTot=      196288 NShNF=      196288 NShFF=           0 MinMC=       3
           NShCPU=      196288 NBCPU=        7205 AvBCPU=        27.2
           NShGPU=           0 NBGPU=           0 AvBGPU=         0.0
 CoulSu:  NxtVal=         861185 LenVP=       24349302 MinMC=       3.
 Polarizability after L703:
                1             2             3 
      1  0.107841D+02
      2  0.000000D+00  0.151589D+02
      3  0.000000D+00  0.000000D+00  0.199162D+02
 Dipole Derivatives after L703:
                 1             2             3             4             5 
      1  -0.391718D+00  0.000000D+00  0.000000D+00  0.223028D+00  0.000000D+00
      2   0.000000D+00 -0.536607D+00  0.000000D+00  0.000000D+00  0.885094D+00
      3   0.000000D+00  0.000000D+00 -0.115591D+01  0.000000D+00  0.000000D+00
                 6             7             8             9            10 
      1   0.000000D+00  0.843448D-01  0.000000D+00  0.000000D+00  0.843448D-01
      2   0.000000D+00  0.000000D+00 -0.174243D+00  0.713987D-01  0.000000D+00
      3   0.122535D+01  0.000000D+00  0.135433D+00 -0.347207D-01  0.000000D+00
                11            12 
      1   0.000000D+00  0.000000D+00
      2  -0.174243D+00 -0.713987D-01
      3  -0.135433D+00 -0.347207D-01
 Hessian after L703:
                1             2             3             4             5 
      1  0.246196D-01
      2  0.000000D+00  0.870369D-01
      3  0.000000D+00  0.000000D+00  0.105574D+01
      4 -0.721264D-01  0.000000D+00  0.000000D+00  0.217361D+00
      5  0.000000D+00 -0.123109D+00  0.000000D+00  0.000000D+00  0.657106D+00
      6  0.000000D+00  0.000000D+00 -0.961144D+00  0.000000D+00  0.000000D+00
      7  0.237534D-01  0.000000D+00  0.000000D+00 -0.726173D-01  0.000000D+00
      8  0.000000D+00  0.180362D-01  0.177816D-01  0.000000D+00 -0.266998D+00
      9  0.000000D+00  0.434144D-01 -0.472973D-01  0.000000D+00  0.906036D-01
     10  0.237534D-01  0.000000D+00  0.000000D+00 -0.726173D-01  0.000000D+00
     11  0.000000D+00  0.180362D-01 -0.177816D-01  0.000000D+00 -0.266998D+00
     12  0.000000D+00 -0.434144D-01 -0.472973D-01  0.000000D+00 -0.906036D-01
                6             7             8             9            10 
      6  0.118723D+01
      7  0.000000D+00  0.242422D-01
      8  0.888264D-01  0.000000D+00  0.270527D+00
      9 -0.113042D+00  0.000000D+00 -0.120313D+00  0.150098D+00
     10  0.000000D+00  0.246217D-01  0.000000D+00  0.000000D+00  0.242422D-01
     11 -0.888264D-01  0.000000D+00 -0.215649D-01 -0.137050D-01  0.000000D+00
     12 -0.113042D+00  0.000000D+00  0.137050D-01  0.102423D-01  0.000000D+00
               11            12 
     11  0.270527D+00
     12  0.120313D+00  0.150098D+00
 Leave Link  703 at Tue Jul  9 11:05:25 2024, MaxMem=    97648640 cpu:             108.8 elap:              26.8
 (Enter /cluster/software/Gaussian/g16_B.01/l716.exe)
 FrcOut:
 IF    =        44 IFX   =        56 IFXYZ =        68
 IFFX  =        80 IFFFX =       158 IFLen =        12
 IFFLen=        78 IFFFLn=         0 IEDerv=       158
 LEDerv=       629 IFroze=       957 ICStrt=     59150
 Dipole        = 2.54943446D-15 1.02669001D-15-1.05778054D+00
 DipoleDeriv   =-3.91717768D-01-1.81889029D-15-6.60556069D-16
                -1.62815222D-15-5.36607379D-01 1.67347355D-15
                 2.98687076D-15 6.88762449D-15-1.15590904D+00
                 2.23028221D-01-6.90588276D-16-2.48746212D-15
                -4.62058632D-15 8.85093621D-01-7.99506922D-15
                -1.09869798D-14-2.91828006D-14 1.22535040D+00
                 8.43447734D-02-4.35332448D-16 2.15251269D-15
                 8.93268493D-16-1.74243121D-01 1.35432882D-01
                 5.44531929D-16 7.13986752D-02-3.47206788D-02
                 8.43447734D-02 2.94481101D-15 9.95505508D-16
                 5.35547005D-15-1.74243121D-01-1.35432882D-01
                 7.45557715D-15-7.13986752D-02-3.47206788D-02
 Polarizability= 1.07840755D+01 4.10417681D-14 1.51589130D+01
                 2.38935126D-14-1.92102503D-13 1.99162056D+01
 PolarDeriv    = 1.45444300D-13 3.48787731D-13-5.22079745D-14
                 3.59331299D+00-2.10983700D-15 1.33368387D-13
                -1.87059606D-13 4.02352993D-14 4.79211619D-13
                -7.40370811D-14 2.59806162D+00 7.12582326D-14
                 3.45251774D+00-8.26864062D-14-2.71318652D+00
                 1.36777428D-13 2.20237430D-13 1.12335789D+01
                -1.61450538D-12 1.48389980D-13-2.00215787D-13
                -2.56277558D+00-2.01948717D-13-3.25980661D-12
                 6.19884800D-13-5.71091236D-13 3.61537773D-12
                -3.31926216D-13 4.73312187D+00 8.59228469D-12
                -2.37247548D+00 4.48494752D-14 9.68835268D+00
                -3.82768929D-13 4.18452930D-12-5.09583693D+00
                 5.40802638D-13 1.25380479D+00 3.01918181D-15
                -5.15268706D-01-4.59414322D-14 2.30488780D-12
                 9.71736063D-01 4.95169505D-14 6.70618325D+00
                 4.91687629D-13-3.66559175D+00 2.02722548D+00
                -5.40021129D-01-2.86711918D-15-3.48758308D+00
                -2.39099662D-13 2.61448776D+00-3.06887096D+00
                 9.28637568D-13-1.25380479D+00 2.49404579D-13
                -5.15268706D-01 2.49999986D-13 8.21550418D-13
                -9.71736063D-01 4.81528548D-13-6.70618325D+00
                -8.57243314D-14-3.66559175D+00-2.02722548D+00
                -5.40021129D-01 4.07040502D-14-3.48758308D+00
                 4.85280724D-13-2.61448776D+00-3.06887096D+00
 HyperPolar    =-5.91176348D-13 6.90069684D-13-7.33577329D-14
                 5.90130657D-12-7.87029416D+00-1.89232755D-14
                -4.40357500D+01-2.64300476D-13 4.61647173D-12
                -3.99738268D+01
 Quadrupole    = 7.55229777D-02 1.95780818D-01-2.71303796D-01
                -1.54134943D-14-5.75450394D-15 3.67248422D-14
 -------------------------------------------------------------------
 Center     Atomic                   Forces (Hartrees/Bohr)
 Number     Number              X              Y              Z
 -------------------------------------------------------------------
      1        8          -0.000000000    0.000000000   -0.002275867
      2        6          -0.000000000    0.000000000   -0.000025312
      3        1           0.000000000    0.000661985    0.001150590
      4        1           0.000000000   -0.000661985    0.001150590
 -------------------------------------------------------------------
 Cartesian Forces:  Max     0.002275867 RMS     0.000851683
 Force constants in Cartesian coordinates: 
                1             2             3             4             5 
      1  0.246196D-01
      2  0.000000D+00  0.870369D-01
      3  0.000000D+00  0.000000D+00  0.105574D+01
      4 -0.721264D-01  0.000000D+00  0.000000D+00  0.217361D+00
      5  0.000000D+00 -0.123109D+00  0.000000D+00  0.000000D+00  0.657106D+00
      6  0.000000D+00  0.000000D+00 -0.961144D+00  0.000000D+00  0.000000D+00
      7  0.237534D-01  0.000000D+00  0.000000D+00 -0.726173D-01  0.000000D+00
      8  0.000000D+00  0.180362D-01  0.177816D-01  0.000000D+00 -0.266998D+00
      9  0.000000D+00  0.434144D-01 -0.472973D-01  0.000000D+00  0.906036D-01
     10  0.237534D-01  0.000000D+00  0.000000D+00 -0.726173D-01  0.000000D+00
     11  0.000000D+00  0.180362D-01 -0.177816D-01  0.000000D+00 -0.266998D+00
     12  0.000000D+00 -0.434144D-01 -0.472973D-01  0.000000D+00 -0.906036D-01
                6             7             8             9            10 
      6  0.118723D+01
      7  0.000000D+00  0.242422D-01
      8  0.888264D-01  0.000000D+00  0.270527D+00
      9 -0.113042D+00  0.000000D+00 -0.120313D+00  0.150098D+00
     10  0.000000D+00  0.246217D-01  0.000000D+00  0.000000D+00  0.242422D-01
     11 -0.888264D-01  0.000000D+00 -0.215649D-01 -0.137050D-01  0.000000D+00
     12 -0.113042D+00  0.000000D+00  0.137050D-01  0.102423D-01  0.000000D+00
               11            12 
     11  0.270527D+00
     12  0.120313D+00  0.150098D+00
 Final forces over variables, Energy=-1.13922364D+02:
 -1.60880713D-07 1.78026753D-08 1.78026760D-08-3.41879592D-08
 -3.41879590D-08 6.83759182D-08 5.37191787D-16
 Leave Link  716 at Tue Jul  9 11:05:25 2024, MaxMem=    97648640 cpu:               0.4 elap:               0.0
 (Enter /cluster/software/Gaussian/g16_B.01/l106.exe)
 NDeriv=      6 NFrqRd=  0 NDerD0=      0 MskFDP=       0 MskDFD=       0 MskDF0=       0
 Re-enter D2Numr:  normal mode   3 step-up   number 1
 Leave Link  106 at Tue Jul  9 11:05:25 2024, MaxMem=    97648640 cpu:               1.5 elap:               0.1
 (Enter /cluster/software/Gaussian/g16_B.01/l301.exe)
 Standard basis: CC-pVQZ (5D, 7F)
 Ernie: Thresh=  0.10000D-02 Tol=  0.10000D-05 Strict=F.
 Ernie:  6 primitive shells out of 90 were deleted.
   170 basis functions,   252 primitive gaussians,   210 cartesian basis functions
     8 alpha electrons        8 beta electrons
       nuclear repulsion energy        31.9768808718 Hartrees.
 IExCor=    0 DFT=F Ex=HF Corr=None ExCW=0 ScaHFX=  1.000000
 ScaDFX=  1.000000  1.000000  1.000000  1.000000 ScalE2=  1.000000  1.000000
 IRadAn=      5 IRanWt=     -1 IRanGd=            0 ICorTp=0 IEmpDi=  4
 NAtoms=    4 NActive=    4 NUniq=    4 SFac= 1.00D+00 NAtFMM=   60 NAOKFM=F Big=F
 Integral buffers will be    131072 words long.
 Raffenetti 1 integral format.
 Two-electron integral symmetry is turned off.
 Leave Link  301 at Tue Jul  9 11:05:25 2024, MaxMem=    97648640 cpu:               0.8 elap:               0.1
 (Enter /cluster/software/Gaussian/g16_B.01/l302.exe)
 NPDir=0 NMtPBC=     1 NCelOv=     1 NCel=       1 NClECP=     1 NCelD=      1
         NCelK=      1 NCelE2=     1 NClLst=     1 CellRange=     0.0.
 One-electron integrals computed using PRISM.
 PrsmSu:  requested number of processors reduced to:   4 ShMem   1 Linda.
 NBasis=   170 RedAO= T EigKep=  2.33D-04  NBF=   170
 NBsUse=   170 1.00D-06 EigRej= -1.00D+00 NBFU=   170
 Leave Link  302 at Tue Jul  9 11:05:26 2024, MaxMem=    97648640 cpu:               2.2 elap:               0.2
 (Enter /cluster/software/Gaussian/g16_B.01/l303.exe)
 DipDrv:  MaxL=1.
 Leave Link  303 at Tue Jul  9 11:05:26 2024, MaxMem=    97648640 cpu:               0.4 elap:               0.1
 (Enter /cluster/software/Gaussian/g16_B.01/l401.exe)
 Initial guess from the checkpoint file:  "inputFull_3q.chk"
 B after Tr=     0.000000    0.000000    0.000683
         Rot=    1.000000   -0.000000    0.000000   -0.000000 Ang=   0.00 deg.
 Guess basis will be translated and rotated to current coordinates.
 JPrj=2 DoOrth=T DoCkMO=T.
 Leave Link  401 at Tue Jul  9 11:05:26 2024, MaxMem=    97648640 cpu:               1.5 elap:               0.1
 (Enter /cluster/software/Gaussian/g16_B.01/l502.exe)
 Two-electron integral symmetry not used.
 Closed shell SCF:
 Using DIIS extrapolation, IDIIS=  1040.
 NGot=    97648640 LenX=    97555748 LenY=    97511207
 Requested convergence on RMS density matrix=1.00D-08 within 128 cycles.
 Requested convergence on MAX density matrix=1.00D-06.
 Requested convergence on             energy=1.00D-06.
 No special actions if energy rises.
 Fock matrices will be formed incrementally for  20 cycles.

 Cycle   1  Pass 1  IDiag  1:
 FoFJK:  IHMeth= 1 ICntrl=       0 DoSepK=F KAlg= 0 I1Cent=           0 FoldK=F
 IRaf= 990000000 NMat=       1 IRICut=       1 DoRegI=T DoRafI=F ISym2E= 0 IDoP0=0 IntGTp=1.
 FoFCou: FMM=F IPFlag=           0 FMFlag=      100000 FMFlg1=           0
         NFxFlg=           0 DoJE=F BraDBF=F KetDBF=F FulRan=T
         wScrn=  0.000000 ICntrl=         0 IOpCl=  0 I1Cent=           0 NGrid=           0
         NMat0=    1 NMatS0=      1 NMatT0=    0 NMatD0=    1 NMtDS0=    0 NMtDT0=    0
 Symmetry not used in FoFCou.
 E= -113.922359500297    
 DIIS: error= 3.85D-04 at cycle   1 NSaved=   1.
 NSaved= 1 IEnMin= 1 EnMin= -113.922359500297     IErMin= 1 ErrMin= 3.85D-04
 ErrMax= 3.85D-04  0.00D+00 EMaxC= 1.00D-01 BMatC= 4.59D-06 BMatP= 4.59D-06
 IDIUse=3 WtCom= 9.96D-01 WtEn= 3.85D-03
 Coeff-Com:  0.100D+01
 Coeff-En:   0.100D+01
 Coeff:      0.100D+01
 Gap=     2.577 Goal=   None    Shift=    0.000
 RMSDP=9.08D-06 MaxDP=2.29D-04              OVMax= 7.87D-04

 Cycle   2  Pass 1  IDiag  1:
 RMSU=  9.03D-06    CP:  1.00D+00
 E= -113.922363621485     Delta-E=       -0.000004121187 Rises=F Damp=F
 DIIS: error= 8.96D-05 at cycle   2 NSaved=   2.
 NSaved= 2 IEnMin= 2 EnMin= -113.922363621485     IErMin= 2 ErrMin= 8.96D-05
 ErrMax= 8.96D-05  0.00D+00 EMaxC= 1.00D-01 BMatC= 3.71D-07 BMatP= 4.59D-06
 IDIUse=1 WtCom= 1.00D+00 WtEn= 0.00D+00
 Coeff-Com: -0.998D-02 0.101D+01
 Coeff:     -0.998D-02 0.101D+01
 Gap=     0.557 Goal=   None    Shift=    0.000
 RMSDP=2.74D-06 MaxDP=5.40D-05 DE=-4.12D-06 OVMax= 2.48D-04

 Cycle   3  Pass 1  IDiag  1:
 RMSU=  2.30D-06    CP:  1.00D+00  1.16D+00
 E= -113.922363938653     Delta-E=       -0.000000317168 Rises=F Damp=F
 DIIS: error= 4.65D-05 at cycle   3 NSaved=   3.
 NSaved= 3 IEnMin= 3 EnMin= -113.922363938653     IErMin= 3 ErrMin= 4.65D-05
 ErrMax= 4.65D-05  0.00D+00 EMaxC= 1.00D-01 BMatC= 1.24D-07 BMatP= 3.71D-07
 IDIUse=1 WtCom= 1.00D+00 WtEn= 0.00D+00
 Coeff-Com: -0.696D-01 0.359D+00 0.711D+00
 Coeff:     -0.696D-01 0.359D+00 0.711D+00
 Gap=     0.557 Goal=   None    Shift=    0.000
 RMSDP=1.17D-06 MaxDP=3.33D-05 DE=-3.17D-07 OVMax= 1.27D-04

 Cycle   4  Pass 1  IDiag  1:
 RMSU=  9.87D-07    CP:  1.00D+00  1.21D+00  7.88D-01
 E= -113.922364043217     Delta-E=       -0.000000104564 Rises=F Damp=F
 DIIS: error= 1.19D-05 at cycle   4 NSaved=   4.
 NSaved= 4 IEnMin= 4 EnMin= -113.922364043217     IErMin= 4 ErrMin= 1.19D-05
 ErrMax= 1.19D-05  0.00D+00 EMaxC= 1.00D-01 BMatC= 6.46D-09 BMatP= 1.24D-07
 IDIUse=1 WtCom= 1.00D+00 WtEn= 0.00D+00
 Coeff-Com:  0.642D-02-0.125D+00 0.102D-02 0.112D+01
 Coeff:      0.642D-02-0.125D+00 0.102D-02 0.112D+01
 Gap=     0.557 Goal=   None    Shift=    0.000
 RMSDP=4.31D-07 MaxDP=1.32D-05 DE=-1.05D-07 OVMax= 3.99D-05

 Cycle   5  Pass 1  IDiag  1:
 RMSU=  1.75D-07    CP:  1.00D+00  1.22D+00  8.67D-01  1.32D+00
 E= -113.922364052201     Delta-E=       -0.000000008984 Rises=F Damp=F
 DIIS: error= 3.17D-06 at cycle   5 NSaved=   5.
 NSaved= 5 IEnMin= 5 EnMin= -113.922364052201     IErMin= 5 ErrMin= 3.17D-06
 ErrMax= 3.17D-06  0.00D+00 EMaxC= 1.00D-01 BMatC= 3.90D-10 BMatP= 6.46D-09
 IDIUse=1 WtCom= 1.00D+00 WtEn= 0.00D+00
 Coeff-Com:  0.617D-02-0.430D-01-0.344D-01 0.706D-01 0.100D+01
 Coeff:      0.617D-02-0.430D-01-0.344D-01 0.706D-01 0.100D+01
 Gap=     0.557 Goal=   None    Shift=    0.000
 RMSDP=1.67D-07 MaxDP=5.58D-06 DE=-8.98D-09 OVMax= 1.02D-05

 Cycle   6  Pass 1  IDiag  1:
 RMSU=  8.54D-08    CP:  1.00D+00  1.22D+00  8.66D-01  1.46D+00  1.23D+00
 E= -113.922364052795     Delta-E=       -0.000000000594 Rises=F Damp=F
 DIIS: error= 6.63D-07 at cycle   6 NSaved=   6.
 NSaved= 6 IEnMin= 6 EnMin= -113.922364052795     IErMin= 6 ErrMin= 6.63D-07
 ErrMax= 6.63D-07  0.00D+00 EMaxC= 1.00D-01 BMatC= 3.49D-11 BMatP= 3.90D-10
 IDIUse=1 WtCom= 1.00D+00 WtEn= 0.00D+00
 Coeff-Com: -0.190D-02 0.177D-01 0.169D-01-0.112D+00-0.204D+00 0.128D+01
 Coeff:     -0.190D-02 0.177D-01 0.169D-01-0.112D+00-0.204D+00 0.128D+01
 Gap=     0.557 Goal=   None    Shift=    0.000
 RMSDP=4.38D-08 MaxDP=1.36D-06 DE=-5.94D-10 OVMax= 4.45D-06

 Cycle   7  Pass 1  IDiag  1:
 RMSU=  1.64D-08    CP:  1.00D+00  1.22D+00  8.62D-01  1.47D+00  1.36D+00
                    CP:  1.32D+00
 E= -113.922364052862     Delta-E=       -0.000000000067 Rises=F Damp=F
 DIIS: error= 2.15D-07 at cycle   7 NSaved=   7.
 NSaved= 7 IEnMin= 7 EnMin= -113.922364052862     IErMin= 7 ErrMin= 2.15D-07
 ErrMax= 2.15D-07  0.00D+00 EMaxC= 1.00D-01 BMatC= 2.59D-12 BMatP= 3.49D-11
 IDIUse=1 WtCom= 1.00D+00 WtEn= 0.00D+00
 Coeff-Com:  0.788D-03-0.855D-02-0.527D-02 0.589D-01 0.574D-01-0.720D+00
 Coeff-Com:  0.162D+01
 Coeff:      0.788D-03-0.855D-02-0.527D-02 0.589D-01 0.574D-01-0.720D+00
 Coeff:      0.162D+01
 Gap=     0.557 Goal=   None    Shift=    0.000
 RMSDP=1.81D-08 MaxDP=5.59D-07 DE=-6.74D-11 OVMax= 2.13D-06

 Cycle   8  Pass 1  IDiag  1:
 RMSU=  4.87D-09    CP:  1.00D+00  1.22D+00  8.63D-01  1.46D+00  1.36D+00
                    CP:  1.33D+00  1.76D+00
 E= -113.922364052871     Delta-E=       -0.000000000009 Rises=F Damp=F
 DIIS: error= 4.59D-08 at cycle   8 NSaved=   8.
 NSaved= 8 IEnMin= 8 EnMin= -113.922364052871     IErMin= 8 ErrMin= 4.59D-08
 ErrMax= 4.59D-08  0.00D+00 EMaxC= 1.00D-01 BMatC= 1.32D-13 BMatP= 2.59D-12
 IDIUse=1 WtCom= 1.00D+00 WtEn= 0.00D+00
 Coeff-Com: -0.167D-03 0.196D-02 0.124D-02-0.156D-01-0.830D-02 0.195D+00
 Coeff-Com: -0.671D+00 0.150D+01
 Coeff:     -0.167D-03 0.196D-02 0.124D-02-0.156D-01-0.830D-02 0.195D+00
 Coeff:     -0.671D+00 0.150D+01
 Gap=     0.557 Goal=   None    Shift=    0.000
 RMSDP=7.46D-09 MaxDP=2.14D-07 DE=-8.55D-12 OVMax= 5.50D-07

 SCF Done:  E(RHF) =  -113.922364053     A.U. after    8 cycles
            NFock=  8  Conv=0.75D-08     -V/T= 2.0000
 KE= 1.139261515385D+02 PE=-3.326300892367D+02 EE= 7.280469277357D+01
 Leave Link  502 at Tue Jul  9 11:05:33 2024, MaxMem=    97648640 cpu:             106.7 elap:               6.7
 (Enter /cluster/software/Gaussian/g16_B.01/l801.exe)
 Range of M.O.s used for correlation:     1   170
 NBasis=   170 NAE=     8 NBE=     8 NFC=     0 NFV=     0
 NROrb=    170 NOA=     8 NOB=     8 NVA=   162 NVB=   162

 **** Warning!!: The largest alpha MO coefficient is  0.16626555D+02

 Leave Link  801 at Tue Jul  9 11:05:33 2024, MaxMem=    97648640 cpu:               0.3 elap:               0.0
 (Enter /cluster/software/Gaussian/g16_B.01/l1002.exe)
 Minotr:  Closed shell wavefunction.
          Direct CPHF calculation.
          Differentiating once with respect to electric field.
                with respect to dipole field.
          Electric field/nuclear overlap derivatives assumed to be zero.
          Requested convergence is 1.0D-08 RMS, and 1.0D-07 maximum.
          Secondary convergence is 1.0D-12 RMS, and 1.0D-12 maximum.
          NewPWx=F KeepS1=T KeepF1=T KeepIn=T MapXYZ=F SortEE=F KeepMc=T.
 Two-electron integral symmetry not used.
          MDV=      97648640 using IRadAn=       4.
          Solving linear equations simultaneously, MaxMat=     384.
          There are     3 degrees of freedom in the 1st order CPHF.  IDoFFX=0 NUNeed=     3.
      3 vectors produced by pass  0 Test12= 4.32D-14 3.33D-08 XBig12= 5.13D+00 1.48D+00.
 AX will form     3 AO Fock derivatives at one time.
 FoFJK:  IHMeth= 1 ICntrl=       0 DoSepK=F KAlg= 0 I1Cent=           0 FoldK=F
 IRaf= 990000000 NMat=       3 IRICut=       1 DoRegI=T DoRafI=F ISym2E= 0 IDoP0=0 IntGTp=1.
 FoFCou: FMM=F IPFlag=           0 FMFlag=      100000 FMFlg1=           0
         NFxFlg=           0 DoJE=F BraDBF=F KetDBF=F FulRan=T
         wScrn=  0.000000 ICntrl=         0 IOpCl=  0 I1Cent=           0 NGrid=           0
         NMat0=    3 NMatS0=      3 NMatT0=    0 NMatD0=    3 NMtDS0=    0 NMtDT0=    0
 Symmetry not used in FoFCou.
      3 vectors produced by pass  1 Test12= 4.32D-14 3.33D-08 XBig12= 6.90D-01 2.28D-01.
      3 vectors produced by pass  2 Test12= 4.32D-14 3.33D-08 XBig12= 6.12D-02 9.39D-02.
      3 vectors produced by pass  3 Test12= 4.32D-14 3.33D-08 XBig12= 2.33D-03 1.87D-02.
      3 vectors produced by pass  4 Test12= 4.32D-14 3.33D-08 XBig12= 9.29D-05 3.85D-03.
      3 vectors produced by pass  5 Test12= 4.32D-14 3.33D-08 XBig12= 8.78D-06 1.07D-03.
      3 vectors produced by pass  6 Test12= 4.32D-14 3.33D-08 XBig12= 1.01D-07 9.22D-05.
      3 vectors produced by pass  7 Test12= 4.32D-14 3.33D-08 XBig12= 1.27D-09 1.09D-05.
      3 vectors produced by pass  8 Test12= 4.32D-14 3.33D-08 XBig12= 1.26D-11 9.76D-07.
      1 vectors produced by pass  9 Test12= 4.32D-14 3.33D-08 XBig12= 3.07D-13 1.93D-07.
 InvSVY:  IOpt=1 It=  1 EMax= 1.70D-16
 Solved reduced A of dimension    28 with     3 vectors.
 End of Minotr F.D. properties file   721 does not exist.
 End of Minotr F.D. properties file   722 does not exist.
 End of Minotr F.D. properties file   788 does not exist.
 Leave Link 1002 at Tue Jul  9 11:05:42 2024, MaxMem=    97648640 cpu:             149.8 elap:               9.4
 (Enter /cluster/software/Gaussian/g16_B.01/l1101.exe)
 Using compressed storage, NAtomX=     4.
 Will process      5 centers per pass.
 PrsmSu:  requested number of processors reduced to:   2 ShMem   1 Linda.
 PrsmSu:  requested number of processors reduced to:   9 ShMem   1 Linda.
 Leave Link 1101 at Tue Jul  9 11:05:42 2024, MaxMem=    97648640 cpu:               1.5 elap:               0.2
 (Enter /cluster/software/Gaussian/g16_B.01/l1102.exe)
 Symmetrizing basis deriv contribution to polar:
 IMax=3 JMax=2 DiffMx= 0.00D+00
 Leave Link 1102 at Tue Jul  9 11:05:42 2024, MaxMem=    97648640 cpu:               0.4 elap:               0.1
 (Enter /cluster/software/Gaussian/g16_B.01/l1110.exe)
 Forming Gx(P) for the SCF density, NAtomX=     4.
 Integral derivatives from FoFJK, PRISM(SPDF).
 Do as many integral derivatives as possible in FoFJK.
 G2DrvN: MDV=      97648192.
 G2DrvN: will do     3 centers at a time, making    2 passes.
 Estimated number of processors is:   10
 G2DrvN:  IPasSy=1 do centers    0 through    2.
 PxScal for G2LodP:  IOpCl= 0 ISclPx=1 IMOff=     1 NMtTot=     4 NTT=   14535 ScalPx= 2.49D+00
 Calling FoFCou, ICntrl=  3107 FMM=F I1Cent=   0 AccDes= 0.00D+00.
 FoFJK:  IHMeth= 1 ICntrl=    3107 DoSepK=F KAlg= 0 I1Cent=           0 FoldK=F
 IRaf=         0 NMat=       1 IRICut=       1 DoRegI=T DoRafI=F ISym2E= 0 IDoP0=0 IntGTp=1.
 FoFCou: FMM=F IPFlag=           0 FMFlag=      100000 FMFlg1=           0
         NFxFlg=           0 DoJE=F BraDBF=F KetDBF=F FulRan=T
         wScrn=  0.000000 ICntrl=      3107 IOpCl=  0 I1Cent=           0 NGrid=           0
         NMat0=    1 NMatS0=      1 NMatT0=    0 NMatD0=    4 NMtDS0=    3 NMtDT0=    0
 Symmetry not used in FoFCou.
 CoulSu:  requested number of processors reduced to:  10 ShMem   1 Linda.
 G2DrvN:  IPasSy=1 do centers    3 through    4.
 PxScal for G2LodP:  IOpCl= 0 ISclPx=1 IMOff=     1 NMtTot=     4 NTT=   14535 ScalPx= 2.49D+00
 Calling FoFCou, ICntrl=  3107 FMM=F I1Cent=   0 AccDes= 0.00D+00.
 CoulSu:  requested number of processors reduced to:  10 ShMem   1 Linda.
 End of G2Drv F.D. properties file   721 does not exist.
 End of G2Drv F.D. properties file   722 does not exist.
 End of G2Drv F.D. properties file   788 does not exist.
 Leave Link 1110 at Tue Jul  9 11:05:54 2024, MaxMem=    97648640 cpu:             117.4 elap:              11.6
 (Enter /cluster/software/Gaussian/g16_B.01/l1002.exe)
 Minotr:  Closed shell wavefunction.
          IDoAtm=1111
          Direct CPHF calculation.
          Differentiating once with respect to electric field.
                with respect to dipole field.
          Differentiating once with respect to nuclear coordinates.
          Requested convergence is 1.0D-08 RMS, and 1.0D-07 maximum.
          Secondary convergence is 1.0D-12 RMS, and 1.0D-12 maximum.
          NewPWx=T KeepS1=F KeepF1=F KeepIn=T MapXYZ=F SortEE=F KeepMc=T.
 Two-electron integral symmetry not used.
          MDV=      97648640 using IRadAn=       4.
          Solving linear equations simultaneously, MaxMat=     384.
 FoF2E skips out because all densities are zero.
 FoFJK:  IHMeth= 1 ICntrl=       0 DoSepK=F KAlg= 0 I1Cent=           0 FoldK=F
 IRaf= 990000000 NMat=       4 IRICut=       1 DoRegI=T DoRafI=F ISym2E= 0 IDoP0=0 IntGTp=1.
 FoFCou: FMM=F IPFlag=           0 FMFlag=      100000 FMFlg1=           0
         NFxFlg=           0 DoJE=F BraDBF=F KetDBF=F FulRan=T
         wScrn=  0.000000 ICntrl=         0 IOpCl=  0 I1Cent=           0 NGrid=           0
         NMat0=    4 NMatS0=      4 NMatT0=    0 NMatD0=    4 NMtDS0=    0 NMtDT0=    0
 Symmetry not used in FoFCou.
          There are    15 degrees of freedom in the 1st order CPHF.  IDoFFX=5 NUNeed=    15.
 Will reuse    3 saved solutions.
      9 vectors produced by pass  0 Test12= 8.64D-15 6.67D-09 XBig12= 6.15D-02 9.03D-02.
 AX will form     3 AO Fock derivatives at one time.
      9 vectors produced by pass  1 Test12= 8.64D-15 6.67D-09 XBig12= 1.03D-02 4.68D-02.
      9 vectors produced by pass  2 Test12= 8.64D-15 6.67D-09 XBig12= 2.21D-04 5.72D-03.
      9 vectors produced by pass  3 Test12= 8.64D-15 6.67D-09 XBig12= 2.15D-06 4.58D-04.
      9 vectors produced by pass  4 Test12= 8.64D-15 6.67D-09 XBig12= 2.37D-08 5.69D-05.
      9 vectors produced by pass  5 Test12= 8.64D-15 6.67D-09 XBig12= 2.11D-10 5.36D-06.
      9 vectors produced by pass  6 Test12= 8.64D-15 6.67D-09 XBig12= 2.71D-12 6.40D-07.
      5 vectors produced by pass  7 Test12= 8.64D-15 6.67D-09 XBig12= 1.83D-14 2.85D-08.
 InvSVY:  IOpt=1 It=  1 EMax= 5.55D-16
 Solved reduced A of dimension    68 with     9 vectors.
 FullF1:  Do perturbations      1 to       3.
 Isotropic polarizability for W=    0.000000       15.26 Bohr**3.
 FullF1:  Do perturbations      1 to       3.
 FullF1:  Do perturbations      4 to       6.
 End of Minotr F.D. properties file   721 does not exist.
 End of Minotr F.D. properties file   722 does not exist.
 End of Minotr F.D. properties file   788 does not exist.
 Leave Link 1002 at Tue Jul  9 11:06:23 2024, MaxMem=    97648640 cpu:             458.1 elap:              28.8
 (Enter /cluster/software/Gaussian/g16_B.01/l601.exe)
 Copying SCF densities to generalized density rwf, IOpCl= 0 IROHF=0.

 **********************************************************************

            Population analysis using the SCF Density.

 **********************************************************************

 Alpha  occ. eigenvalues --  -20.57183 -11.33129  -1.42460  -0.86769  -0.70374
 Alpha  occ. eigenvalues --   -0.65951  -0.54908  -0.43954
 Alpha virt. eigenvalues --    0.11710   0.12282   0.17586   0.21813   0.33667
 Alpha virt. eigenvalues --    0.34321   0.34587   0.46776   0.47984   0.54061
 Alpha virt. eigenvalues --    0.54514   0.63030   0.65283   0.67587   0.74622
 Alpha virt. eigenvalues --    0.74980   0.81433   0.87148   0.90177   0.96136
 Alpha virt. eigenvalues --    1.02652   1.08032   1.12263   1.14219   1.21306
 Alpha virt. eigenvalues --    1.33834   1.46548   1.47108   1.50995   1.54736
 Alpha virt. eigenvalues --    1.63174   1.63260   1.73359   1.78460   1.87661
 Alpha virt. eigenvalues --    1.92397   2.02459   2.04336   2.04909   2.07188
 Alpha virt. eigenvalues --    2.10480   2.14031   2.29344   2.36740   2.37922
 Alpha virt. eigenvalues --    2.38166   2.48004   2.57871   2.62653   2.66544
 Alpha virt. eigenvalues --    2.66787   2.78815   2.81618   2.87078   2.90778
 Alpha virt. eigenvalues --    3.09670   3.09702   3.20082   3.21811   3.42660
 Alpha virt. eigenvalues --    3.49175   3.58285   3.62651   3.67786   3.70966
 Alpha virt. eigenvalues --    3.72433   3.75273   3.89250   4.04712   4.06423
 Alpha virt. eigenvalues --    4.13252   4.33261   4.38323   4.39996   4.58207
 Alpha virt. eigenvalues --    4.62324   4.70859   4.73221   5.05734   5.06388
 Alpha virt. eigenvalues --    5.38200   5.42239   5.50845   5.53740   5.67960
 Alpha virt. eigenvalues --    5.72735   5.84742   6.01764   6.03931   6.10166
 Alpha virt. eigenvalues --    6.20760   6.26261   6.26391   6.28009   6.34646
 Alpha virt. eigenvalues --    6.37077   6.41564   6.49137   6.63760   6.75872
 Alpha virt. eigenvalues --    6.76420   6.78721   6.92779   7.02153   7.22908
 Alpha virt. eigenvalues --    7.45901   7.59147   7.71749   7.72060   7.75318
 Alpha virt. eigenvalues --    7.81983   7.85428   7.87107   7.96777   8.04483
 Alpha virt. eigenvalues --    8.06802   8.28464   8.29380   8.46819   8.50374
 Alpha virt. eigenvalues --    8.54330   8.60318   8.76517   8.87516   8.90603
 Alpha virt. eigenvalues --    8.97755   9.29879   9.35282   9.37629   9.44867
 Alpha virt. eigenvalues --    9.60676   9.66689   9.94348  10.16198  10.27620
 Alpha virt. eigenvalues --   10.29901  10.37343  10.57523  10.63467  10.72949
 Alpha virt. eigenvalues --   10.74614  10.95062  11.12240  11.25710  11.41997
 Alpha virt. eigenvalues --   11.59964  11.62037  11.62276  11.85621  12.00086
 Alpha virt. eigenvalues --   12.24114  12.37565  12.59052  12.76601  12.92423
 Alpha virt. eigenvalues --   12.99381  13.37579  13.93360  14.46497  14.68560
 Alpha virt. eigenvalues --   25.95766  42.81817
          Condensed to atoms (all electrons):
               1          2          3          4
     1  O    7.843838   0.684494  -0.081688  -0.081688
     2  C    0.684494   4.200218   0.394413   0.394413
     3  H   -0.081688   0.394413   0.815374  -0.147346
     4  H   -0.081688   0.394413  -0.147346   0.815374
 Mulliken charges:
               1
     1  O   -0.364956
     2  C    0.326462
     3  H    0.019247
     4  H    0.019247
 Sum of Mulliken charges =  -0.00000
 Mulliken charges with hydrogens summed into heavy atoms:
               1
     1  O   -0.364956
     2  C    0.364956
 APT charges:
               1
     1  O   -0.693816
     2  C    0.772863
     3  H   -0.039524
     4  H   -0.039524
 Sum of APT charges =  -0.00000
 APT charges with hydrogens summed into heavy atoms:
               1
     1  O   -0.693816
     2  C    0.693816
 Electronic spatial extent (au):  <R**2>=             58.8714
 Charge=             -0.0000 electrons
 Dipole moment (field-independent basis, Debye):
    X=              0.0000    Y=             -0.0000    Z=             -2.6754  Tot=              2.6754
 Quadrupole moment (field-independent basis, Debye-Ang):
   XX=            -11.5942   YY=            -11.3867   ZZ=            -12.1049
   XY=             -0.0000   XZ=             -0.0000   YZ=              0.0000
 Traceless Quadrupole moment (field-independent basis, Debye-Ang):
   XX=              0.1011   YY=              0.3086   ZZ=             -0.4096
   XY=             -0.0000   XZ=             -0.0000   YZ=              0.0000
 Octapole moment (field-independent basis, Debye-Ang**2):
  XXX=              0.0000  YYY=             -0.0000  ZZZ=              0.2637  XYY=             -0.0000
  XXY=             -0.0000  XXZ=              0.4514  XZZ=              0.0000  YZZ=             -0.0000
  YYZ=             -0.6115  XYZ=             -0.0000
 Hexadecapole moment (field-independent basis, Debye-Ang**3):
 XXXX=            -10.0950 YYYY=            -17.2961 ZZZZ=            -43.3694 XXXY=             -0.0000
 XXXZ=             -0.0000 YYYX=             -0.0000 YYYZ=              0.0000 ZZZX=             -0.0000
 ZZZY=              0.0000 XXYY=             -4.9213 XXZZ=             -8.8284 YYZZ=             -9.6830
 XXYZ=              0.0000 YYXZ=             -0.0000 ZZXY=             -0.0000
 N-N= 3.197688087176D+01 E-N=-3.326300893305D+02  KE= 1.139261515385D+02
  Exact polarizability:  10.776   0.000  15.186   0.000   0.000  19.803
 Approx polarizability:  10.434   0.000  12.381   0.000   0.000  17.298
 No NMR shielding tensors so no spin-rotation constants.
 Leave Link  601 at Tue Jul  9 11:06:23 2024, MaxMem=    97648640 cpu:               2.7 elap:               0.2
 (Enter /cluster/software/Gaussian/g16_B.01/l701.exe)
 SCFChk:  SCF convergence  7.46D-09 required  1.00D-08
 ... and contract with generalized density number  0.
 Compute integral second derivatives.
 Entering OneElI...
 Calculate overlap and kinetic energy integrals
    NBasis = 210  MinDer = 2  MaxDer = 2
 Requested accuracy = 0.1000D-12
 PrsmSu:  requested number of processors reduced to:   1 ShMem   1 Linda.
 PrmmSu-InSpLW:  IPartL=    0 NPrtUS=    1 NPrtUL=    1 DoSpLW=F IThBeg=    0 IThEnd=    0 NThAct=    1.
 PrSmSu:  IncTry=   512 NBBP=           1275 NTPThr=   100 NPartT=    1 Incr=          12 LDynOK=F GPUOK=F.
 PrsmSu:  NPrtUS=   1 ThrOK=F IAlg=2 LenDen=           0 ISkipM=0 DoSpLW=F IThBeg=    0 IThEnd=    0.
 Prism:   IPart=     0 DynPar=F LinDyn=F Incr=          12.
 PRISM was handed    97371836 working-precision words and  1275 shell-pairs
 IPart=  0 NShTot=        1275 NBatch=          77 AvBLen=        16.6
 PrSmSu:  NxtVal=             13.
 Entering OneElI...
 Calculate potential energy integrals
    NBasis = 210  MinDer = 2  MaxDer = 2
 Requested accuracy = 0.1000D-12
 PrsmSu:  requested number of processors reduced to:   4 ShMem   1 Linda.
 PrmmSu-InSpLW:  IPartL=    0 NPrtUS=    4 NPrtUL=    1 DoSpLW=F IThBeg=    0 IThEnd=    3 NThAct=    4.
 PrSmSu:  IncTry=   512 NBBP=           5092 NTPThr=   100 NPartT=    4 Incr=          12 LDynOK=F GPUOK=F.
 PrsmSu:  NPrtUS=   4 ThrOK=T IAlg=2 LenDen=           0 ISkipM=0 DoSpLW=F IThBeg=    0 IThEnd=    3.
 Prism:   IPart=     0 DynPar=F LinDyn=F Incr=          12.
 PRISM was handed    24334029 working-precision words and  1273 shell-pairs
 PRISM was handed    24334029 working-precision words and  1273 shell-pairs
 PRISM was handed    24334029 working-precision words and  1273 shell-pairs
 PRISM was handed    24334029 working-precision words and  1273 shell-pairs
 IPart=  2 NShTot=        1236 NBatch=         309 AvBLen=         4.0
 IPart=  0 NShTot=        1332 NBatch=         333 AvBLen=         4.0
 IPart=  3 NShTot=        1224 NBatch=         306 AvBLen=         4.0
 IPart=  1 NShTot=        1300 NBatch=         325 AvBLen=         4.0
 PrSmSu:  NxtVal=             49.
 Polarizability after L701:
                1             2             3 
      1  0.107761D+02
      2  0.000000D+00  0.151860D+02
      3  0.000000D+00  0.000000D+00  0.198035D+02
 Dipole Derivatives after L701:
                 1             2             3             4             5 
      1  -0.391066D+00  0.000000D+00  0.000000D+00  0.221395D+00  0.000000D+00
      2   0.000000D+00 -0.536375D+00  0.000000D+00  0.000000D+00  0.879602D+00
      3   0.000000D+00  0.000000D+00 -0.115401D+01  0.000000D+00  0.000000D+00
                 6             7             8             9            10 
      1   0.000000D+00  0.848352D-01  0.000000D+00  0.000000D+00  0.848352D-01
      2   0.000000D+00  0.000000D+00 -0.171613D+00  0.661653D-01  0.000000D+00
      3   0.121759D+01  0.000000D+00  0.137441D+00 -0.317933D-01  0.000000D+00
                11            12 
      1   0.000000D+00  0.000000D+00
      2  -0.171613D+00 -0.661653D-01
      3  -0.137441D+00 -0.317933D-01
 Hessian after L701:
                1             2             3             4             5 
      1  0.130992D+02
      2  0.000000D+00  0.106125D+02
      3  0.000000D+00  0.000000D+00 -0.851209D+00
      4 -0.132396D+02  0.000000D+00  0.000000D+00  0.180593D+02
      5  0.000000D+00 -0.117493D+02  0.000000D+00  0.000000D+00  0.142806D+02
      6  0.000000D+00  0.000000D+00  0.138201D+01  0.000000D+00  0.000000D+00
      7  0.701748D-01  0.000000D+00  0.000000D+00 -0.240987D+01  0.000000D+00
      8  0.000000D+00  0.568369D+00 -0.277854D+00  0.000000D+00 -0.126568D+01
      9  0.000000D+00 -0.315455D+00 -0.265402D+00  0.000000D+00 -0.897156D+00
     10  0.701748D-01  0.000000D+00  0.000000D+00 -0.240987D+01  0.000000D+00
     11  0.000000D+00  0.568369D+00  0.277854D+00  0.000000D+00 -0.126568D+01
     12  0.000000D+00  0.315455D+00 -0.265402D+00  0.000000D+00  0.897156D+00
                6             7             8             9            10 
      6  0.246888D+01
      7  0.000000D+00  0.205818D+01
      8 -0.788240D+00  0.000000D+00  0.123555D+01
      9 -0.192545D+01  0.000000D+00  0.113935D+01  0.187945D+01
     10  0.000000D+00  0.281517D+00  0.000000D+00  0.000000D+00  0.205818D+01
     11  0.788240D+00  0.000000D+00 -0.538238D+00  0.732589D-01  0.000000D+00
     12 -0.192545D+01  0.000000D+00 -0.732589D-01  0.311399D+00  0.000000D+00
               11            12 
     11  0.123555D+01
     12 -0.113935D+01  0.187945D+01
 Leave Link  701 at Tue Jul  9 11:06:23 2024, MaxMem=    97648640 cpu:               0.9 elap:               0.3
 (Enter /cluster/software/Gaussian/g16_B.01/l702.exe)
 L702 exits ... SP integral derivatives will be done elsewhere.
 Leave Link  702 at Tue Jul  9 11:06:23 2024, MaxMem=    97648640 cpu:               0.3 elap:               0.0
 (Enter /cluster/software/Gaussian/g16_B.01/l703.exe)
 Integral derivatives from FoFJK, PRISM(SPDF).
 Compute integral second derivatives, UseDBF=F ICtDFT=           0.
 ICntrl=    100127.
 Calling FoFJK, ICntrl=    100127 FMM=F ISym2X=0 I1Cent= 0 IOpClX= 0 NMat=1 NMatS=1 NMatT=0.
 FoFJK:  IHMeth= 1 ICntrl=  100127 DoSepK=F KAlg= 0 I1Cent=           0 FoldK=F
 IRaf=         0 NMat=       1 IRICut=       1 DoRegI=T DoRafI=F ISym2E= 0 IDoP0=0 IntGTp=1.
 FoFCou: FMM=F IPFlag=           0 FMFlag=      100000 FMFlg1=         800
         NFxFlg=           0 DoJE=F BraDBF=F KetDBF=F FulRan=T
         wScrn=  0.000000 ICntrl=    100127 IOpCl=  0 I1Cent=           0 NGrid=           0
         NMat0=    1 NMatS0=      1 NMatT0=    0 NMatD0=    1 NMtDS0=    0 NMtDT0=    0
 Symmetry not used in FoFCou.
 FoFCou:  KetSym=F NOpSet=  1 NOpAb=1 NOp=  1.
 FoFCou:  CnvScl= 1.00D+00 Thresh= 1.00D-12 IAcrcy=      10.
 PrismS was handed    97482780 working-precision words and  1275 shell-pairs
 FoFCou: LinMIO=F DoNuc=F BraDBF=F KetDBF=F HaveP=T PDBF=F HaveZ=T HaveW=F
         NIJTC =      15 NIJTAt=       0 NIJTCD=       0 NIJTT =      15
         IJTBeg=       1 IJTEnd=      15 KLTBeg=       1 KLTEnd=      15
         IPTBeg=       1 IPTEnd=      15 IPTBCv=       1 IPTECv=      15
         IZTBeg=       1 IZTEnd=      15 IZTBCv=       1 IZTECv=      15
         IWTBeg=      16 IWTEnd=      15 IWTBCv=      16 IWTECv=      15
         INTBeg=       1 INTEnd=       0 IFTBCv=       1 IFTECv=      15
 NCel replicated for PrismC:     1
 CoulSu:  requested number of processors reduced to:   4 ShMem   1 Linda.
 CoulSu-InSpLW:  IPartL=    0 NPrtUS=    4 NPrtUL=    1 DoSpLW=F IThBeg=    0 IThEnd=    3 NThAct=    4.
 CoulSu:  IncTry=  1024 NBBP=         813450 NTPThr=   100 NPartT=    4 Incr=        1024 LDynOK=F GPUOK=F.
 CoulSu:  NPrtUS=   4 ThrOK=T IAlg=2 LenDen=           0 LWGrdD=           0 DoCopy=F ISkipM=0
          DoSpLW=F IThBeg=    0 IThEnd=    3.
 Enter PrismC:  IPart=  0 JobTyp=22 DoJE=F Cont=F.
 PrismC:  IPart=     0 DynPar=T LinDyn=F Incr=        1024 UseFst=F UseS4=T ISplat=2.
 PrismC was handed    24349301 working-precision words and  1275 shell-pairs
 Enter PrismC:  IPart=  2 JobTyp=22 DoJE=F Cont=F.
 Enter PrismC:  IPart=  3 JobTyp=22 DoJE=F Cont=F.
 PrismC:  IPart=     2 DynPar=T LinDyn=F Incr=        1024 UseFst=F UseS4=T ISplat=2.
 Enter PrismC:  IPart=  1 JobTyp=22 DoJE=F Cont=F.
 PrismC:  IPart=     3 DynPar=T LinDyn=F Incr=        1024 UseFst=F UseS4=T ISplat=2.
 PrismC was handed    24349301 working-precision words and  1275 shell-pairs
 PrismC was handed    24349301 working-precision words and  1275 shell-pairs
 PrismC:  IPart=     1 DynPar=T LinDyn=F Incr=        1024 UseFst=F UseS4=T ISplat=2.
 PrismC was handed    24349301 working-precision words and  1275 shell-pairs
 IPart=  2 NShTot=      202644 NShNF=      202644 NShFF=           0 MinMC=       3
           NShCPU=      202644 NBCPU=        7300 AvBCPU=        27.8
           NShGPU=           0 NBGPU=           0 AvBGPU=         0.0
 IPart=  3 NShTot=      192710 NShNF=      192710 NShFF=           0 MinMC=       3
           NShCPU=      192710 NBCPU=        7510 AvBCPU=        25.7
           NShGPU=           0 NBGPU=           0 AvBGPU=         0.0
 IPart=  1 NShTot=      185720 NShNF=      185720 NShFF=           0 MinMC=       3
           NShCPU=      185720 NBCPU=        6921 AvBCPU=        26.8
           NShGPU=           0 NBGPU=           0 AvBGPU=         0.0
 IPart=  0 NShTot=      217805 NShNF=      217805 NShFF=           0 MinMC=       3
           NShCPU=      217805 NBCPU=        8240 AvBCPU=        26.4
           NShGPU=           0 NBGPU=           0 AvBGPU=         0.0
 CoulSu:  NxtVal=         861185 LenVP=       24349302 MinMC=       3.
 Polarizability after L703:
                1             2             3 
      1  0.107761D+02
      2  0.000000D+00  0.151860D+02
      3  0.000000D+00  0.000000D+00  0.198035D+02
 Dipole Derivatives after L703:
                 1             2             3             4             5 
      1  -0.391066D+00  0.000000D+00  0.000000D+00  0.221395D+00  0.000000D+00
      2   0.000000D+00 -0.536375D+00  0.000000D+00  0.000000D+00  0.879602D+00
      3   0.000000D+00  0.000000D+00 -0.115401D+01  0.000000D+00  0.000000D+00
                 6             7             8             9            10 
      1   0.000000D+00  0.848352D-01  0.000000D+00  0.000000D+00  0.848352D-01
      2   0.000000D+00  0.000000D+00 -0.171613D+00  0.661653D-01  0.000000D+00
      3   0.121759D+01  0.000000D+00  0.137441D+00 -0.317933D-01  0.000000D+00
                11            12 
      1   0.000000D+00  0.000000D+00
      2  -0.171613D+00 -0.661653D-01
      3  -0.137441D+00 -0.317933D-01
 Hessian after L703:
                1             2             3             4             5 
      1  0.224564D-01
      2  0.000000D+00  0.865134D-01
      3  0.000000D+00  0.000000D+00  0.106778D+01
      4 -0.706484D-01  0.000000D+00  0.000000D+00  0.215606D+00
      5  0.000000D+00 -0.122197D+00  0.000000D+00  0.000000D+00  0.662776D+00
      6  0.000000D+00  0.000000D+00 -0.971265D+00  0.000000D+00  0.000000D+00
      7  0.240960D-01  0.000000D+00  0.000000D+00 -0.724790D-01  0.000000D+00
      8  0.000000D+00  0.178418D-01  0.181214D-01  0.000000D+00 -0.270289D+00
      9  0.000000D+00  0.443465D-01 -0.482598D-01  0.000000D+00  0.893029D-01
     10  0.240960D-01  0.000000D+00  0.000000D+00 -0.724790D-01  0.000000D+00
     11  0.000000D+00  0.178418D-01 -0.181214D-01  0.000000D+00 -0.270289D+00
     12  0.000000D+00 -0.443465D-01 -0.482598D-01  0.000000D+00 -0.893029D-01
                6             7             8             9            10 
      6  0.119265D+01
      7  0.000000D+00  0.243806D-01
      8  0.884395D-01  0.000000D+00  0.272669D+00
      9 -0.110693D+00  0.000000D+00 -0.120105D+00  0.148875D+00
     10  0.000000D+00  0.240025D-01  0.000000D+00  0.000000D+00  0.243806D-01
     11 -0.884395D-01  0.000000D+00 -0.202211D-01 -0.135443D-01  0.000000D+00
     12 -0.110693D+00  0.000000D+00  0.135443D-01  0.100778D-01  0.000000D+00
               11            12 
     11  0.272669D+00
     12  0.120105D+00  0.148875D+00
 Leave Link  703 at Tue Jul  9 11:06:50 2024, MaxMem=    97648640 cpu:             109.9 elap:              27.1
 (Enter /cluster/software/Gaussian/g16_B.01/l716.exe)
 FrcOut:
 IF    =        44 IFX   =        56 IFXYZ =        68
 IFFX  =        80 IFFFX =       158 IFLen =        12
 IFFLen=        78 IFFFLn=         0 IEDerv=       158
 LEDerv=       629 IFroze=       957 ICStrt=     59150
 Dipole        = 8.85586222D-17-1.86282041D-14-1.05259726D+00
 DipoleDeriv   =-3.91065863D-01-3.83070444D-15-1.57278830D-15
                -3.25100255D-15-5.36375413D-01 1.05635376D-14
                 1.85398838D-15 2.17768739D-14-1.15400598D+00
                 2.21395435D-01 5.72422324D-15 7.15774963D-16
                -2.28378823D-15 8.79602096D-01-8.63217998D-15
                -6.68559873D-15-2.06171849D-14 1.21759248D+00
                 8.48352138D-02-2.09120825D-15 3.66011070D-15
                 1.60298834D-15-1.71613341D-01 1.37441377D-01
                -1.10905408D-15 6.61653235D-02-3.17932536D-02
                 8.48352138D-02 1.97689451D-16-2.80309736D-15
                 3.93180244D-15-1.71613341D-01-1.37441377D-01
                 5.94066443D-15-6.61653235D-02-3.17932536D-02
 Polarizability= 1.07761429D+01 2.95548399D-14 1.51860025D+01
                 1.43311892D-14 2.01049285D-13 1.98034943D+01
 PolarDeriv    =-2.58879008D-13 1.08199269D-13-1.15064233D-13
                 3.57264800D+00 6.91857885D-14 7.61531981D-14
                -2.14248582D-13-1.30731453D-13-7.99737445D-13
                -2.27528533D-14 2.59272908D+00-6.71590393D-13
                 3.45147987D+00-3.72185438D-14-2.75977881D+00
                -1.00616340D-13-1.37455315D-12 1.12151094D+01
                -1.07485592D-13 1.07198132D-12 1.50041140D-13
                -2.56636063D+00-3.67492260D-13 1.38301310D-12
                 2.22745209D-13 6.83678059D-14 7.12283835D-12
                 3.01058510D-13 4.68083881D+00 2.72216187D-12
                -2.40927233D+00 3.93928320D-13 9.62921832D+00
                -9.39168605D-13 4.92873043D-12-5.24711620D+00
                 6.63064467D-14 1.25467891D+00-2.55963941D-13
                -5.03143685D-01 4.33610089D-13-5.57196931D-13
                 9.87240275D-01 1.09481835D-13 6.81295692D+00
                -4.32793981D-14-3.63678394D+00 2.02440110D+00
                -5.21103771D-01-2.68130543D-13-3.43471976D+00
                 4.53909325D-13 2.56615176D+00-2.98399660D+00
                 3.05377734D-13-1.25467891D+00 2.20987034D-13
                -5.03143685D-01-1.35303618D-13-9.01969363D-13
                -9.87240275D-01-4.44583985D-14-6.81295692D+00
                -2.35026258D-13-3.63678394D+00-2.02440110D+00
                -5.21103771D-01-8.85792331D-14-3.43471976D+00
                 5.88535410D-13-2.56615176D+00-2.98399660D+00
 HyperPolar    =-2.83941375D-13 8.36935467D-13-1.56922067D-14
                -1.51522076D-11-7.84002040D+00 2.89323189D-14
                -4.38267183D+01-6.76484334D-14-2.63507711D-12
                -3.95362394D+01
 Quadrupole    = 7.51502049D-02 2.29405223D-01-3.04555428D-01
                -1.11800210D-14-2.62820318D-15 2.18629638D-14
 -------------------------------------------------------------------
 Center     Atomic                   Forces (Hartrees/Bohr)
 Number     Number              X              Y              Z
 -------------------------------------------------------------------
      1        8          -0.000000000   -0.000000000    0.002292263
      2        6           0.000000000    0.000000000   -0.000004823
      3        1          -0.000000000   -0.000664443   -0.001143720
      4        1           0.000000000    0.000664443   -0.001143720
 -------------------------------------------------------------------
 Cartesian Forces:  Max     0.002292263 RMS     0.000854091
 Force constants in Cartesian coordinates: 
                1             2             3             4             5 
      1  0.224564D-01
      2  0.000000D+00  0.865134D-01
      3  0.000000D+00  0.000000D+00  0.106778D+01
      4 -0.706484D-01  0.000000D+00  0.000000D+00  0.215606D+00
      5  0.000000D+00 -0.122197D+00  0.000000D+00  0.000000D+00  0.662776D+00
      6  0.000000D+00  0.000000D+00 -0.971265D+00  0.000000D+00  0.000000D+00
      7  0.240960D-01  0.000000D+00  0.000000D+00 -0.724790D-01  0.000000D+00
      8  0.000000D+00  0.178418D-01  0.181214D-01  0.000000D+00 -0.270289D+00
      9  0.000000D+00  0.443465D-01 -0.482598D-01  0.000000D+00  0.893029D-01
     10  0.240960D-01  0.000000D+00  0.000000D+00 -0.724790D-01  0.000000D+00
     11  0.000000D+00  0.178418D-01 -0.181214D-01  0.000000D+00 -0.270289D+00
     12  0.000000D+00 -0.443465D-01 -0.482598D-01  0.000000D+00 -0.893029D-01
                6             7             8             9            10 
      6  0.119265D+01
      7  0.000000D+00  0.243806D-01
      8  0.884395D-01  0.000000D+00  0.272669D+00
      9 -0.110693D+00  0.000000D+00 -0.120105D+00  0.148875D+00
     10  0.000000D+00  0.240025D-01  0.000000D+00  0.000000D+00  0.243806D-01
     11 -0.884395D-01  0.000000D+00 -0.202211D-01 -0.135443D-01  0.000000D+00
     12 -0.110693D+00  0.000000D+00  0.135443D-01  0.100778D-01  0.000000D+00
               11            12 
     11  0.272669D+00
     12  0.120105D+00  0.148875D+00
 Final forces over variables, Energy=-1.13922364D+02:
 -1.60880713D-07 1.78026753D-08 1.78026760D-08-3.41879592D-08
 -3.41879590D-08 6.83759182D-08 5.37191787D-16
 Leave Link  716 at Tue Jul  9 11:06:51 2024, MaxMem=    97648640 cpu:               0.4 elap:               0.0
 (Enter /cluster/software/Gaussian/g16_B.01/l106.exe)
 NDeriv=      6 NFrqRd=  0 NDerD0=      0 MskFDP=       0 MskDFD=       0 MskDF0=       0
 Re-enter D2Numr:  normal mode   3 step-down number 1
 Leave Link  106 at Tue Jul  9 11:06:51 2024, MaxMem=    97648640 cpu:               1.5 elap:               0.1
 (Enter /cluster/software/Gaussian/g16_B.01/l301.exe)
 Standard basis: CC-pVQZ (5D, 7F)
 Ernie: Thresh=  0.10000D-02 Tol=  0.10000D-05 Strict=F.
 Ernie:  6 primitive shells out of 90 were deleted.
   170 basis functions,   252 primitive gaussians,   210 cartesian basis functions
     8 alpha electrons        8 beta electrons
       nuclear repulsion energy        31.8831327327 Hartrees.
 IExCor=    0 DFT=F Ex=HF Corr=None ExCW=0 ScaHFX=  1.000000
 ScaDFX=  1.000000  1.000000  1.000000  1.000000 ScalE2=  1.000000  1.000000
 IRadAn=      5 IRanWt=     -1 IRanGd=            0 ICorTp=0 IEmpDi=  4
 NAtoms=    4 NActive=    4 NUniq=    4 SFac= 1.00D+00 NAtFMM=   60 NAOKFM=F Big=F
 Integral buffers will be    131072 words long.
 Raffenetti 1 integral format.
 Two-electron integral symmetry is turned off.
 Leave Link  301 at Tue Jul  9 11:06:51 2024, MaxMem=    97648640 cpu:               0.8 elap:               0.1
 (Enter /cluster/software/Gaussian/g16_B.01/l302.exe)
 NPDir=0 NMtPBC=     1 NCelOv=     1 NCel=       1 NClECP=     1 NCelD=      1
         NCelK=      1 NCelE2=     1 NClLst=     1 CellRange=     0.0.
 One-electron integrals computed using PRISM.
 PrsmSu:  requested number of processors reduced to:   4 ShMem   1 Linda.
 NBasis=   170 RedAO= T EigKep=  2.33D-04  NBF=   170
 NBsUse=   170 1.00D-06 EigRej= -1.00D+00 NBFU=   170
 Leave Link  302 at Tue Jul  9 11:06:51 2024, MaxMem=    97648640 cpu:               2.3 elap:               0.2
 (Enter /cluster/software/Gaussian/g16_B.01/l303.exe)
 DipDrv:  MaxL=1.
 Leave Link  303 at Tue Jul  9 11:06:51 2024, MaxMem=    97648640 cpu:               0.4 elap:               0.1
 (Enter /cluster/software/Gaussian/g16_B.01/l401.exe)
 Initial guess from the checkpoint file:  "inputFull_3q.chk"
 B after Tr=     0.000000   -0.000000    0.000070
         Rot=    1.000000    0.000000    0.000000    0.000000 Ang=   0.00 deg.
 Guess basis will be translated and rotated to current coordinates.
 JPrj=2 DoOrth=T DoCkMO=T.
 Leave Link  401 at Tue Jul  9 11:06:51 2024, MaxMem=    97648640 cpu:               1.5 elap:               0.1
 (Enter /cluster/software/Gaussian/g16_B.01/l502.exe)
 Two-electron integral symmetry not used.
 Closed shell SCF:
 Using DIIS extrapolation, IDIIS=  1040.
 NGot=    97648640 LenX=    97555748 LenY=    97511207
 Requested convergence on RMS density matrix=1.00D-08 within 128 cycles.
 Requested convergence on MAX density matrix=1.00D-06.
 Requested convergence on             energy=1.00D-06.
 No special actions if energy rises.
 Fock matrices will be formed incrementally for  20 cycles.

 Cycle   1  Pass 1  IDiag  1:
 FoFJK:  IHMeth= 1 ICntrl=       0 DoSepK=F KAlg= 0 I1Cent=           0 FoldK=F
 IRaf= 990000000 NMat=       1 IRICut=       1 DoRegI=T DoRafI=F ISym2E= 0 IDoP0=0 IntGTp=1.
 FoFCou: FMM=F IPFlag=           0 FMFlag=      100000 FMFlg1=           0
         NFxFlg=           0 DoJE=F BraDBF=F KetDBF=F FulRan=T
         wScrn=  0.000000 ICntrl=         0 IOpCl=  0 I1Cent=           0 NGrid=           0
         NMat0=    1 NMatS0=      1 NMatT0=    0 NMatD0=    1 NMtDS0=    0 NMtDT0=    0
 Symmetry not used in FoFCou.
 E= -113.922342504533    
 DIIS: error= 3.82D-04 at cycle   1 NSaved=   1.
 NSaved= 1 IEnMin= 1 EnMin= -113.922342504533     IErMin= 1 ErrMin= 3.82D-04
 ErrMax= 3.82D-04  0.00D+00 EMaxC= 1.00D-01 BMatC= 1.66D-05 BMatP= 1.66D-05
 IDIUse=3 WtCom= 9.96D-01 WtEn= 3.82D-03
 Coeff-Com:  0.100D+01
 Coeff-En:   0.100D+01
 Coeff:      0.100D+01
 Gap=     2.576 Goal=   None    Shift=    0.000
 RMSDP=1.11D-05 MaxDP=2.35D-04              OVMax= 1.07D-03

 Cycle   2  Pass 1  IDiag  1:
 RMSU=  1.11D-05    CP:  1.00D+00
 E= -113.922354044633     Delta-E=       -0.000011540100 Rises=F Damp=F
 DIIS: error= 1.55D-04 at cycle   2 NSaved=   2.
 NSaved= 2 IEnMin= 2 EnMin= -113.922354044633     IErMin= 2 ErrMin= 1.55D-04
 ErrMax= 1.55D-04  0.00D+00 EMaxC= 1.00D-01 BMatC= 1.75D-06 BMatP= 1.66D-05
 IDIUse=3 WtCom= 9.98D-01 WtEn= 1.55D-03
 Coeff-Com:  0.108D+00 0.892D+00
 Coeff-En:   0.000D+00 0.100D+01
 Coeff:      0.108D+00 0.892D+00
 Gap=     0.556 Goal=   None    Shift=    0.000
 RMSDP=7.78D-06 MaxDP=2.44D-04 DE=-1.15D-05 OVMax= 5.85D-04

 Cycle   3  Pass 1  IDiag  1:
 RMSU=  7.61D-06    CP:  1.00D+00  1.14D+00
 E= -113.922355356469     Delta-E=       -0.000001311836 Rises=F Damp=F
 DIIS: error= 5.79D-05 at cycle   3 NSaved=   3.
 NSaved= 3 IEnMin= 3 EnMin= -113.922355356469     IErMin= 3 ErrMin= 5.79D-05
 ErrMax= 5.79D-05  0.00D+00 EMaxC= 1.00D-01 BMatC= 4.08D-07 BMatP= 1.75D-06
 IDIUse=1 WtCom= 1.00D+00 WtEn= 0.00D+00
 Coeff-Com: -0.554D-01 0.261D+00 0.795D+00
 Coeff:     -0.554D-01 0.261D+00 0.795D+00
 Gap=     0.556 Goal=   None    Shift=    0.000
 RMSDP=1.85D-06 MaxDP=4.83D-05 DE=-1.31D-06 OVMax= 2.15D-04

 Cycle   4  Pass 1  IDiag  1:
 RMSU=  1.29D-06    CP:  1.00D+00  1.26D+00  9.72D-01
 E= -113.922355704664     Delta-E=       -0.000000348195 Rises=F Damp=F
 DIIS: error= 2.51D-05 at cycle   4 NSaved=   4.
 NSaved= 4 IEnMin= 4 EnMin= -113.922355704664     IErMin= 4 ErrMin= 2.51D-05
 ErrMax= 2.51D-05  0.00D+00 EMaxC= 1.00D-01 BMatC= 2.52D-08 BMatP= 4.08D-07
 IDIUse=1 WtCom= 1.00D+00 WtEn= 0.00D+00
 Coeff-Com: -0.161D-01-0.485D-01 0.116D+00 0.949D+00
 Coeff:     -0.161D-01-0.485D-01 0.116D+00 0.949D+00
 Gap=     0.556 Goal=   None    Shift=    0.000
 RMSDP=9.23D-07 MaxDP=2.44D-05 DE=-3.48D-07 OVMax= 8.89D-05

 Cycle   5  Pass 1  IDiag  1:
 RMSU=  4.85D-07    CP:  1.00D+00  1.29D+00  1.06D+00  1.14D+00
 E= -113.922355739171     Delta-E=       -0.000000034508 Rises=F Damp=F
 DIIS: error= 6.25D-06 at cycle   5 NSaved=   5.
 NSaved= 5 IEnMin= 5 EnMin= -113.922355739171     IErMin= 5 ErrMin= 6.25D-06
 ErrMax= 6.25D-06  0.00D+00 EMaxC= 1.00D-01 BMatC= 1.45D-09 BMatP= 2.52D-08
 IDIUse=1 WtCom= 1.00D+00 WtEn= 0.00D+00
 Coeff-Com:  0.494D-02-0.244D-01-0.709D-01 0.375D-01 0.105D+01
 Coeff:      0.494D-02-0.244D-01-0.709D-01 0.375D-01 0.105D+01
 Gap=     0.556 Goal=   None    Shift=    0.000
 RMSDP=3.33D-07 MaxDP=1.07D-05 DE=-3.45D-08 OVMax= 3.26D-05

 Cycle   6  Pass 1  IDiag  1:
 RMSU=  1.11D-07    CP:  1.00D+00  1.30D+00  1.08D+00  1.28D+00  1.25D+00
 E= -113.922355741905     Delta-E=       -0.000000002733 Rises=F Damp=F
 DIIS: error= 8.15D-07 at cycle   6 NSaved=   6.
 NSaved= 6 IEnMin= 6 EnMin= -113.922355741905     IErMin= 6 ErrMin= 8.15D-07
 ErrMax= 8.15D-07  0.00D+00 EMaxC= 1.00D-01 BMatC= 4.58D-11 BMatP= 1.45D-09
 IDIUse=1 WtCom= 1.00D+00 WtEn= 0.00D+00
 Coeff-Com: -0.510D-03 0.792D-02 0.838D-02-0.512D-01-0.221D+00 0.126D+01
 Coeff:     -0.510D-03 0.792D-02 0.838D-02-0.512D-01-0.221D+00 0.126D+01
 Gap=     0.556 Goal=   None    Shift=    0.000
 RMSDP=8.55D-08 MaxDP=2.34D-06 DE=-2.73D-09 OVMax= 6.09D-06

 Cycle   7  Pass 1  IDiag  1:
 RMSU=  1.59D-08    CP:  1.00D+00  1.30D+00  1.09D+00  1.30D+00  1.37D+00
                    CP:  1.46D+00
 E= -113.922355742002     Delta-E=       -0.000000000097 Rises=F Damp=F
 DIIS: error= 1.75D-07 at cycle   7 NSaved=   7.
 NSaved= 7 IEnMin= 7 EnMin= -113.922355742002     IErMin= 7 ErrMin= 1.75D-07
 ErrMax= 1.75D-07  0.00D+00 EMaxC= 1.00D-01 BMatC= 1.26D-12 BMatP= 4.58D-11
 IDIUse=1 WtCom= 1.00D+00 WtEn= 0.00D+00
 Coeff-Com: -0.560D-04-0.302D-03 0.237D-03 0.857D-02 0.183D-02-0.189D+00
 Coeff-Com:  0.118D+01
 Coeff:     -0.560D-04-0.302D-03 0.237D-03 0.857D-02 0.183D-02-0.189D+00
 Coeff:      0.118D+01
 Gap=     0.556 Goal=   None    Shift=    0.000
 RMSDP=1.16D-08 MaxDP=4.13D-07 DE=-9.69D-11 OVMax= 5.73D-07

 Cycle   8  Pass 1  IDiag  1:
 RMSU=  3.06D-09    CP:  1.00D+00  1.30D+00  1.09D+00  1.30D+00  1.37D+00
                    CP:  1.53D+00  1.42D+00
 E= -113.922355742004     Delta-E=       -0.000000000002 Rises=F Damp=F
 DIIS: error= 2.47D-08 at cycle   8 NSaved=   8.
 NSaved= 8 IEnMin= 8 EnMin= -113.922355742004     IErMin= 8 ErrMin= 2.47D-08
 ErrMax= 2.47D-08  0.00D+00 EMaxC= 1.00D-01 BMatC= 4.29D-14 BMatP= 1.26D-12
 IDIUse=1 WtCom= 1.00D+00 WtEn= 0.00D+00
 Coeff-Com:  0.282D-04-0.196D-03-0.452D-03 0.251D-03 0.690D-02-0.331D-02
 Coeff-Com: -0.242D+00 0.124D+01
 Coeff:      0.282D-04-0.196D-03-0.452D-03 0.251D-03 0.690D-02-0.331D-02
 Coeff:     -0.242D+00 0.124D+01
 Gap=     0.556 Goal=   None    Shift=    0.000
 RMSDP=2.86D-09 MaxDP=9.85D-08 DE=-1.96D-12 OVMax= 1.37D-07

 SCF Done:  E(RHF) =  -113.922355742     A.U. after    8 cycles
            NFock=  8  Conv=0.29D-08     -V/T= 2.0002
 KE= 1.139042176645D+02 PE=-3.324279355309D+02 EE= 7.271822939175D+01
 Leave Link  502 at Tue Jul  9 11:06:58 2024, MaxMem=    97648640 cpu:             106.6 elap:               6.7
 (Enter /cluster/software/Gaussian/g16_B.01/l801.exe)
 Range of M.O.s used for correlation:     1   170
 NBasis=   170 NAE=     8 NBE=     8 NFC=     0 NFV=     0
 NROrb=    170 NOA=     8 NOB=     8 NVA=   162 NVB=   162

 **** Warning!!: The largest alpha MO coefficient is  0.16488478D+02

 Leave Link  801 at Tue Jul  9 11:06:58 2024, MaxMem=    97648640 cpu:               0.3 elap:               0.0
 (Enter /cluster/software/Gaussian/g16_B.01/l1002.exe)
 Minotr:  Closed shell wavefunction.
          Direct CPHF calculation.
          Differentiating once with respect to electric field.
                with respect to dipole field.
          Electric field/nuclear overlap derivatives assumed to be zero.
          Requested convergence is 1.0D-08 RMS, and 1.0D-07 maximum.
          Secondary convergence is 1.0D-12 RMS, and 1.0D-12 maximum.
          NewPWx=F KeepS1=T KeepF1=T KeepIn=T MapXYZ=F SortEE=F KeepMc=T.
 Two-electron integral symmetry not used.
          MDV=      97648640 using IRadAn=       4.
          Solving linear equations simultaneously, MaxMat=     384.
          There are     3 degrees of freedom in the 1st order CPHF.  IDoFFX=0 NUNeed=     3.
      3 vectors produced by pass  0 Test12= 4.32D-14 3.33D-08 XBig12= 5.18D+00 1.50D+00.
 AX will form     3 AO Fock derivatives at one time.
 FoFJK:  IHMeth= 1 ICntrl=       0 DoSepK=F KAlg= 0 I1Cent=           0 FoldK=F
 IRaf= 990000000 NMat=       3 IRICut=       1 DoRegI=T DoRafI=F ISym2E= 0 IDoP0=0 IntGTp=1.
 FoFCou: FMM=F IPFlag=           0 FMFlag=      100000 FMFlg1=           0
         NFxFlg=           0 DoJE=F BraDBF=F KetDBF=F FulRan=T
         wScrn=  0.000000 ICntrl=         0 IOpCl=  0 I1Cent=           0 NGrid=           0
         NMat0=    3 NMatS0=      3 NMatT0=    0 NMatD0=    3 NMtDS0=    0 NMtDT0=    0
 Symmetry not used in FoFCou.
      3 vectors produced by pass  1 Test12= 4.32D-14 3.33D-08 XBig12= 7.03D-01 2.34D-01.
      3 vectors produced by pass  2 Test12= 4.32D-14 3.33D-08 XBig12= 6.29D-02 9.59D-02.
      3 vectors produced by pass  3 Test12= 4.32D-14 3.33D-08 XBig12= 2.41D-03 1.90D-02.
      3 vectors produced by pass  4 Test12= 4.32D-14 3.33D-08 XBig12= 9.31D-05 3.88D-03.
      3 vectors produced by pass  5 Test12= 4.32D-14 3.33D-08 XBig12= 8.86D-06 1.07D-03.
      3 vectors produced by pass  6 Test12= 4.32D-14 3.33D-08 XBig12= 1.03D-07 9.35D-05.
      3 vectors produced by pass  7 Test12= 4.32D-14 3.33D-08 XBig12= 1.29D-09 1.08D-05.
      3 vectors produced by pass  8 Test12= 4.32D-14 3.33D-08 XBig12= 1.28D-11 1.00D-06.
      1 vectors produced by pass  9 Test12= 4.32D-14 3.33D-08 XBig12= 3.18D-13 1.94D-07.
 InvSVY:  IOpt=1 It=  1 EMax= 2.22D-16
 Solved reduced A of dimension    28 with     3 vectors.
 End of Minotr F.D. properties file   721 does not exist.
 End of Minotr F.D. properties file   722 does not exist.
 End of Minotr F.D. properties file   788 does not exist.
 Leave Link 1002 at Tue Jul  9 11:07:07 2024, MaxMem=    97648640 cpu:             150.0 elap:               9.4
 (Enter /cluster/software/Gaussian/g16_B.01/l1101.exe)
 Using compressed storage, NAtomX=     4.
 Will process      5 centers per pass.
 PrsmSu:  requested number of processors reduced to:   2 ShMem   1 Linda.
 PrsmSu:  requested number of processors reduced to:   9 ShMem   1 Linda.
 Leave Link 1101 at Tue Jul  9 11:07:08 2024, MaxMem=    97648640 cpu:               1.5 elap:               0.2
 (Enter /cluster/software/Gaussian/g16_B.01/l1102.exe)
 Symmetrizing basis deriv contribution to polar:
 IMax=3 JMax=2 DiffMx= 0.00D+00
 Leave Link 1102 at Tue Jul  9 11:07:08 2024, MaxMem=    97648640 cpu:               0.4 elap:               0.1
 (Enter /cluster/software/Gaussian/g16_B.01/l1110.exe)
 Forming Gx(P) for the SCF density, NAtomX=     4.
 Integral derivatives from FoFJK, PRISM(SPDF).
 Do as many integral derivatives as possible in FoFJK.
 G2DrvN: MDV=      97648192.
 G2DrvN: will do     3 centers at a time, making    2 passes.
 Estimated number of processors is:   10
 G2DrvN:  IPasSy=1 do centers    0 through    2.
 PxScal for G2LodP:  IOpCl= 0 ISclPx=1 IMOff=     1 NMtTot=     4 NTT=   14535 ScalPx= 2.47D+00
 Calling FoFCou, ICntrl=  3107 FMM=F I1Cent=   0 AccDes= 0.00D+00.
 FoFJK:  IHMeth= 1 ICntrl=    3107 DoSepK=F KAlg= 0 I1Cent=           0 FoldK=F
 IRaf=         0 NMat=       1 IRICut=       1 DoRegI=T DoRafI=F ISym2E= 0 IDoP0=0 IntGTp=1.
 FoFCou: FMM=F IPFlag=           0 FMFlag=      100000 FMFlg1=           0
         NFxFlg=           0 DoJE=F BraDBF=F KetDBF=F FulRan=T
         wScrn=  0.000000 ICntrl=      3107 IOpCl=  0 I1Cent=           0 NGrid=           0
         NMat0=    1 NMatS0=      1 NMatT0=    0 NMatD0=    4 NMtDS0=    3 NMtDT0=    0
 Symmetry not used in FoFCou.
 CoulSu:  requested number of processors reduced to:  10 ShMem   1 Linda.
 G2DrvN:  IPasSy=1 do centers    3 through    4.
 PxScal for G2LodP:  IOpCl= 0 ISclPx=1 IMOff=     1 NMtTot=     4 NTT=   14535 ScalPx= 2.47D+00
 Calling FoFCou, ICntrl=  3107 FMM=F I1Cent=   0 AccDes= 0.00D+00.
 CoulSu:  requested number of processors reduced to:  10 ShMem   1 Linda.
 End of G2Drv F.D. properties file   721 does not exist.
 End of G2Drv F.D. properties file   722 does not exist.
 End of G2Drv F.D. properties file   788 does not exist.
 Leave Link 1110 at Tue Jul  9 11:07:19 2024, MaxMem=    97648640 cpu:             111.8 elap:              11.1
 (Enter /cluster/software/Gaussian/g16_B.01/l1002.exe)
 Minotr:  Closed shell wavefunction.
          IDoAtm=1111
          Direct CPHF calculation.
          Differentiating once with respect to electric field.
                with respect to dipole field.
          Differentiating once with respect to nuclear coordinates.
          Requested convergence is 1.0D-08 RMS, and 1.0D-07 maximum.
          Secondary convergence is 1.0D-12 RMS, and 1.0D-12 maximum.
          NewPWx=T KeepS1=F KeepF1=F KeepIn=T MapXYZ=F SortEE=F KeepMc=T.
 Two-electron integral symmetry not used.
          MDV=      97648640 using IRadAn=       4.
          Solving linear equations simultaneously, MaxMat=     384.
 FoF2E skips out because all densities are zero.
 FoFJK:  IHMeth= 1 ICntrl=       0 DoSepK=F KAlg= 0 I1Cent=           0 FoldK=F
 IRaf= 990000000 NMat=       4 IRICut=       1 DoRegI=T DoRafI=F ISym2E= 0 IDoP0=0 IntGTp=1.
 FoFCou: FMM=F IPFlag=           0 FMFlag=      100000 FMFlg1=           0
         NFxFlg=           0 DoJE=F BraDBF=F KetDBF=F FulRan=T
         wScrn=  0.000000 ICntrl=         0 IOpCl=  0 I1Cent=           0 NGrid=           0
         NMat0=    4 NMatS0=      4 NMatT0=    0 NMatD0=    4 NMtDS0=    0 NMtDT0=    0
 Symmetry not used in FoFCou.
          There are    15 degrees of freedom in the 1st order CPHF.  IDoFFX=5 NUNeed=    15.
 Will reuse    3 saved solutions.
      9 vectors produced by pass  0 Test12= 8.64D-15 6.67D-09 XBig12= 6.10D-02 9.03D-02.
 AX will form     3 AO Fock derivatives at one time.
      9 vectors produced by pass  1 Test12= 8.64D-15 6.67D-09 XBig12= 1.03D-02 4.67D-02.
      9 vectors produced by pass  2 Test12= 8.64D-15 6.67D-09 XBig12= 2.22D-04 5.70D-03.
      9 vectors produced by pass  3 Test12= 8.64D-15 6.67D-09 XBig12= 2.14D-06 4.59D-04.
      9 vectors produced by pass  4 Test12= 8.64D-15 6.67D-09 XBig12= 2.33D-08 5.61D-05.
      9 vectors produced by pass  5 Test12= 8.64D-15 6.67D-09 XBig12= 2.05D-10 5.26D-06.
      8 vectors produced by pass  6 Test12= 8.64D-15 6.67D-09 XBig12= 2.58D-12 6.28D-07.
      5 vectors produced by pass  7 Test12= 8.64D-15 6.67D-09 XBig12= 1.75D-14 2.79D-08.
 InvSVY:  IOpt=1 It=  1 EMax= 4.44D-16
 Solved reduced A of dimension    67 with     9 vectors.
 FullF1:  Do perturbations      1 to       3.
 Isotropic polarizability for W=    0.000000       15.29 Bohr**3.
 FullF1:  Do perturbations      1 to       3.
 FullF1:  Do perturbations      4 to       6.
 End of Minotr F.D. properties file   721 does not exist.
 End of Minotr F.D. properties file   722 does not exist.
 End of Minotr F.D. properties file   788 does not exist.
 Leave Link 1002 at Tue Jul  9 11:07:47 2024, MaxMem=    97648640 cpu:             450.3 elap:              28.3
 (Enter /cluster/software/Gaussian/g16_B.01/l601.exe)
 Copying SCF densities to generalized density rwf, IOpCl= 0 IROHF=0.

 **********************************************************************

            Population analysis using the SCF Density.

 **********************************************************************

 Alpha  occ. eigenvalues --  -20.57236 -11.33241  -1.42165  -0.86881  -0.70227
 Alpha  occ. eigenvalues --   -0.65870  -0.54721  -0.44021
 Alpha virt. eigenvalues --    0.11586   0.12248   0.17577   0.21801   0.33653
 Alpha virt. eigenvalues --    0.34384   0.34559   0.46781   0.47977   0.54064
 Alpha virt. eigenvalues --    0.54363   0.62817   0.65333   0.67611   0.74465
 Alpha virt. eigenvalues --    0.74988   0.81582   0.87068   0.90276   0.95920
 Alpha virt. eigenvalues --    1.02553   1.07672   1.12123   1.14118   1.21522
 Alpha virt. eigenvalues --    1.33870   1.46576   1.47230   1.50819   1.54624
 Alpha virt. eigenvalues --    1.63046   1.63146   1.73523   1.78612   1.87686
 Alpha virt. eigenvalues --    1.92372   2.02279   2.04174   2.04866   2.07227
 Alpha virt. eigenvalues --    2.10588   2.13944   2.28963   2.36556   2.37850
 Alpha virt. eigenvalues --    2.37933   2.47970   2.57994   2.62020   2.66492
 Alpha virt. eigenvalues --    2.66677   2.78682   2.81290   2.87241   2.90634
 Alpha virt. eigenvalues --    3.09604   3.09820   3.20031   3.21875   3.42898
 Alpha virt. eigenvalues --    3.48765   3.58086   3.62189   3.67660   3.70577
 Alpha virt. eigenvalues --    3.72420   3.74843   3.89453   4.04760   4.06128
 Alpha virt. eigenvalues --    4.12910   4.33551   4.38119   4.39890   4.57763
 Alpha virt. eigenvalues --    4.61622   4.70746   4.73291   5.04699   5.06378
 Alpha virt. eigenvalues --    5.38094   5.41961   5.50666   5.53780   5.67896
 Alpha virt. eigenvalues --    5.72611   5.84098   6.01709   6.03409   6.10561
 Alpha virt. eigenvalues --    6.20365   6.26105   6.26365   6.27893   6.34145
 Alpha virt. eigenvalues --    6.36784   6.40957   6.49148   6.63193   6.75153
 Alpha virt. eigenvalues --    6.76127   6.78495   6.92307   7.01917   7.21908
 Alpha virt. eigenvalues --    7.46693   7.58853   7.70774   7.71260   7.74842
 Alpha virt. eigenvalues --    7.81770   7.85087   7.86821   7.96013   8.04349
 Alpha virt. eigenvalues --    8.06782   8.28167   8.29846   8.46804   8.50226
 Alpha virt. eigenvalues --    8.53985   8.59508   8.76639   8.87490   8.90027
 Alpha virt. eigenvalues --    8.97614   9.29896   9.35306   9.37299   9.44803
 Alpha virt. eigenvalues --    9.59825   9.66782   9.92895  10.16049  10.26979
 Alpha virt. eigenvalues --   10.29443  10.36612  10.56440  10.63177  10.72832
 Alpha virt. eigenvalues --   10.73392  10.94180  11.11209  11.25521  11.41913
 Alpha virt. eigenvalues --   11.59796  11.60838  11.62113  11.85071  11.99712
 Alpha virt. eigenvalues --   12.23138  12.37181  12.59085  12.76101  12.91234
 Alpha virt. eigenvalues --   12.98145  13.35972  13.91164  14.44883  14.66634
 Alpha virt. eigenvalues --   25.91911  42.79366
          Condensed to atoms (all electrons):
               1          2          3          4
     1  O    7.846629   0.682821  -0.080525  -0.080525
     2  C    0.682821   4.201180   0.394319   0.394319
     3  H   -0.080525   0.394319   0.812667  -0.146979
     4  H   -0.080525   0.394319  -0.146979   0.812667
 Mulliken charges:
               1
     1  O   -0.368400
     2  C    0.327363
     3  H    0.020519
     4  H    0.020519
 Sum of Mulliken charges =  -0.00000
 Mulliken charges with hydrogens summed into heavy atoms:
               1
     1  O   -0.368400
     2  C    0.368400
 APT charges:
               1
     1  O   -0.692507
     2  C    0.768467
     3  H   -0.037980
     4  H   -0.037980
 Sum of APT charges =  -0.00000
 APT charges with hydrogens summed into heavy atoms:
               1
     1  O   -0.692507
     2  C    0.692507
 Electronic spatial extent (au):  <R**2>=             59.0643
 Charge=             -0.0000 electrons
 Dipole moment (field-independent basis, Debye):
    X=              0.0000    Y=             -0.0000    Z=             -2.7013  Tot=              2.7013
 Quadrupole moment (field-independent basis, Debye-Ang):
   XX=            -11.6079   YY=            -11.3973   ZZ=            -12.0817
   XY=             -0.0000   XZ=             -0.0000   YZ=              0.0000
 Traceless Quadrupole moment (field-independent basis, Debye-Ang):
   XX=              0.0877   YY=              0.2983   ZZ=             -0.3861
   XY=             -0.0000   XZ=             -0.0000   YZ=              0.0000
 Octapole moment (field-independent basis, Debye-Ang**2):
  XXX=              0.0000  YYY=             -0.0000  ZZZ=              0.2160  XYY=              0.0000
  XXY=             -0.0000  XXZ=              0.4487  XZZ=              0.0000  YZZ=             -0.0000
  YYZ=             -0.6278  XYZ=              0.0000
 Hexadecapole moment (field-independent basis, Debye-Ang**3):
 XXXX=            -10.1239 YYYY=            -17.2759 ZZZZ=            -43.5469 XXXY=             -0.0000
 XXXZ=             -0.0000 YYYX=             -0.0000 YYYZ=              0.0000 ZZZX=             -0.0000
 ZZZY=              0.0000 XXYY=             -4.9211 XXZZ=             -8.8736 YYZZ=             -9.6938
 XXYZ=              0.0000 YYXZ=              0.0000 ZZXY=             -0.0000
 N-N= 3.188313273270D+01 E-N=-3.324279353231D+02  KE= 1.139042176645D+02
  Exact polarizability:  10.805   0.000  15.158   0.000  -0.000  19.919
 Approx polarizability:  10.460   0.000  12.365   0.000  -0.000  17.415
 No NMR shielding tensors so no spin-rotation constants.
 Leave Link  601 at Tue Jul  9 11:07:47 2024, MaxMem=    97648640 cpu:               2.6 elap:               0.2
 (Enter /cluster/software/Gaussian/g16_B.01/l701.exe)
 SCFChk:  SCF convergence  2.86D-09 required  1.00D-08
 ... and contract with generalized density number  0.
 Compute integral second derivatives.
 Entering OneElI...
 Calculate overlap and kinetic energy integrals
    NBasis = 210  MinDer = 2  MaxDer = 2
 Requested accuracy = 0.1000D-12
 PrsmSu:  requested number of processors reduced to:   1 ShMem   1 Linda.
 PrmmSu-InSpLW:  IPartL=    0 NPrtUS=    1 NPrtUL=    1 DoSpLW=F IThBeg=    0 IThEnd=    0 NThAct=    1.
 PrSmSu:  IncTry=   512 NBBP=           1275 NTPThr=   100 NPartT=    1 Incr=          12 LDynOK=F GPUOK=F.
 PrsmSu:  NPrtUS=   1 ThrOK=F IAlg=2 LenDen=           0 ISkipM=0 DoSpLW=F IThBeg=    0 IThEnd=    0.
 Prism:   IPart=     0 DynPar=F LinDyn=F Incr=          12.
 PRISM was handed    97371836 working-precision words and  1275 shell-pairs
 IPart=  0 NShTot=        1275 NBatch=          77 AvBLen=        16.6
 PrSmSu:  NxtVal=             13.
 Entering OneElI...
 Calculate potential energy integrals
    NBasis = 210  MinDer = 2  MaxDer = 2
 Requested accuracy = 0.1000D-12
 PrsmSu:  requested number of processors reduced to:   4 ShMem   1 Linda.
 PrmmSu-InSpLW:  IPartL=    0 NPrtUS=    4 NPrtUL=    1 DoSpLW=F IThBeg=    0 IThEnd=    3 NThAct=    4.
 PrSmSu:  IncTry=   512 NBBP=           5092 NTPThr=   100 NPartT=    4 Incr=          12 LDynOK=F GPUOK=F.
 PrsmSu:  NPrtUS=   4 ThrOK=T IAlg=2 LenDen=           0 ISkipM=0 DoSpLW=F IThBeg=    0 IThEnd=    3.
 Prism:   IPart=     0 DynPar=F LinDyn=F Incr=          12.
 PRISM was handed    24334048 working-precision words and  1273 shell-pairs
 PRISM was handed    24334048 working-precision words and  1273 shell-pairs
 PRISM was handed    24334048 working-precision words and  1273 shell-pairs
 PRISM was handed    24334048 working-precision words and  1273 shell-pairs
 IPart=  0 NShTot=        1336 NBatch=         334 AvBLen=         4.0
 IPart=  2 NShTot=        1236 NBatch=         309 AvBLen=         4.0
 IPart=  3 NShTot=        1224 NBatch=         306 AvBLen=         4.0
 IPart=  1 NShTot=        1296 NBatch=         324 AvBLen=         4.0
 PrSmSu:  NxtVal=             49.
 Polarizability after L701:
                1             2             3 
      1  0.108046D+02
      2  0.000000D+00  0.151583D+02
      3  0.000000D+00  0.000000D+00  0.199193D+02
 Dipole Derivatives after L701:
                 1             2             3             4             5 
      1  -0.392807D+00  0.000000D+00  0.000000D+00  0.221274D+00  0.000000D+00
      2   0.000000D+00 -0.536849D+00  0.000000D+00  0.000000D+00  0.874582D+00
      3   0.000000D+00  0.000000D+00 -0.114786D+01  0.000000D+00  0.000000D+00
                 6             7             8             9            10 
      1   0.000000D+00  0.857665D-01  0.000000D+00  0.000000D+00  0.857665D-01
      2   0.000000D+00  0.000000D+00 -0.168866D+00  0.664744D-01  0.000000D+00
      3   0.120955D+01  0.000000D+00  0.135180D+00 -0.308411D-01  0.000000D+00
                11            12 
      1   0.000000D+00  0.000000D+00
      2  -0.168866D+00 -0.664744D-01
      3  -0.135180D+00 -0.308411D-01
 Hessian after L701:
                1             2             3             4             5 
      1  0.129760D+02
      2  0.000000D+00  0.105156D+02
      3  0.000000D+00  0.000000D+00 -0.954083D+00
      4 -0.131110D+02  0.000000D+00  0.000000D+00  0.179258D+02
      5  0.000000D+00 -0.116326D+02  0.000000D+00  0.000000D+00  0.141810D+02
      6  0.000000D+00  0.000000D+00  0.147067D+01  0.000000D+00  0.000000D+00
      7  0.675227D-01  0.000000D+00  0.000000D+00 -0.240739D+01  0.000000D+00
      8  0.000000D+00  0.558507D+00 -0.277052D+00  0.000000D+00 -0.127419D+01
      9  0.000000D+00 -0.314099D+00 -0.258295D+00  0.000000D+00 -0.900308D+00
     10  0.675227D-01  0.000000D+00  0.000000D+00 -0.240739D+01  0.000000D+00
     11  0.000000D+00  0.558507D+00  0.277052D+00  0.000000D+00 -0.127419D+01
     12  0.000000D+00  0.314099D+00 -0.258295D+00  0.000000D+00  0.900308D+00
                6             7             8             9            10 
      6  0.235815D+01
      7  0.000000D+00  0.205885D+01
      8 -0.792642D+00  0.000000D+00  0.125104D+01
      9 -0.191441D+01  0.000000D+00  0.114205D+01  0.186227D+01
     10  0.000000D+00  0.281017D+00  0.000000D+00  0.000000D+00  0.205885D+01
     11  0.792642D+00  0.000000D+00 -0.535359D+00  0.723567D-01  0.000000D+00
     12 -0.191441D+01  0.000000D+00 -0.723567D-01  0.310434D+00  0.000000D+00
               11            12 
     11  0.125104D+01
     12 -0.114205D+01  0.186227D+01
 Leave Link  701 at Tue Jul  9 11:07:48 2024, MaxMem=    97648640 cpu:               1.0 elap:               0.3
 (Enter /cluster/software/Gaussian/g16_B.01/l702.exe)
 L702 exits ... SP integral derivatives will be done elsewhere.
 Leave Link  702 at Tue Jul  9 11:07:48 2024, MaxMem=    97648640 cpu:               0.3 elap:               0.0
 (Enter /cluster/software/Gaussian/g16_B.01/l703.exe)
 Integral derivatives from FoFJK, PRISM(SPDF).
 Compute integral second derivatives, UseDBF=F ICtDFT=           0.
 ICntrl=    100127.
 Calling FoFJK, ICntrl=    100127 FMM=F ISym2X=0 I1Cent= 0 IOpClX= 0 NMat=1 NMatS=1 NMatT=0.
 FoFJK:  IHMeth= 1 ICntrl=  100127 DoSepK=F KAlg= 0 I1Cent=           0 FoldK=F
 IRaf=         0 NMat=       1 IRICut=       1 DoRegI=T DoRafI=F ISym2E= 0 IDoP0=0 IntGTp=1.
 FoFCou: FMM=F IPFlag=           0 FMFlag=      100000 FMFlg1=         800
         NFxFlg=           0 DoJE=F BraDBF=F KetDBF=F FulRan=T
         wScrn=  0.000000 ICntrl=    100127 IOpCl=  0 I1Cent=           0 NGrid=           0
         NMat0=    1 NMatS0=      1 NMatT0=    0 NMatD0=    1 NMtDS0=    0 NMtDT0=    0
 Symmetry not used in FoFCou.
 FoFCou:  KetSym=F NOpSet=  1 NOpAb=1 NOp=  1.
 FoFCou:  CnvScl= 1.00D+00 Thresh= 1.00D-12 IAcrcy=      10.
 PrismS was handed    97482780 working-precision words and  1275 shell-pairs
 FoFCou: LinMIO=F DoNuc=F BraDBF=F KetDBF=F HaveP=T PDBF=F HaveZ=T HaveW=F
         NIJTC =      15 NIJTAt=       0 NIJTCD=       0 NIJTT =      15
         IJTBeg=       1 IJTEnd=      15 KLTBeg=       1 KLTEnd=      15
         IPTBeg=       1 IPTEnd=      15 IPTBCv=       1 IPTECv=      15
         IZTBeg=       1 IZTEnd=      15 IZTBCv=       1 IZTECv=      15
         IWTBeg=      16 IWTEnd=      15 IWTBCv=      16 IWTECv=      15
         INTBeg=       1 INTEnd=       0 IFTBCv=       1 IFTECv=      15
 NCel replicated for PrismC:     1
 CoulSu:  requested number of processors reduced to:   4 ShMem   1 Linda.
 CoulSu-InSpLW:  IPartL=    0 NPrtUS=    4 NPrtUL=    1 DoSpLW=F IThBeg=    0 IThEnd=    3 NThAct=    4.
 CoulSu:  IncTry=  1024 NBBP=         813450 NTPThr=   100 NPartT=    4 Incr=        1024 LDynOK=F GPUOK=F.
 CoulSu:  NPrtUS=   4 ThrOK=T IAlg=2 LenDen=           0 LWGrdD=           0 DoCopy=F ISkipM=0
          DoSpLW=F IThBeg=    0 IThEnd=    3.
 Enter PrismC:  IPart=  0 JobTyp=22 DoJE=F Cont=F.
 PrismC:  IPart=     0 DynPar=T LinDyn=F Incr=        1024 UseFst=F UseS4=T ISplat=2.
 PrismC was handed    24349301 working-precision words and  1275 shell-pairs
 Enter PrismC:  IPart=  3 JobTyp=22 DoJE=F Cont=F.
 Enter PrismC:  IPart=  2 JobTyp=22 DoJE=F Cont=F.
 PrismC:  IPart=     3 DynPar=T LinDyn=F Incr=        1024 UseFst=F UseS4=T ISplat=2.
 Enter PrismC:  IPart=  1 JobTyp=22 DoJE=F Cont=F.
 PrismC was handed    24349301 working-precision words and  1275 shell-pairs
 PrismC:  IPart=     2 DynPar=T LinDyn=F Incr=        1024 UseFst=F UseS4=T ISplat=2.
 PrismC was handed    24349301 working-precision words and  1275 shell-pairs
 PrismC:  IPart=     1 DynPar=T LinDyn=F Incr=        1024 UseFst=F UseS4=T ISplat=2.
 PrismC was handed    24349301 working-precision words and  1275 shell-pairs
 IPart=  1 NShTot=      184083 NShNF=      184083 NShFF=           0 MinMC=       3
           NShCPU=      184083 NBCPU=        6542 AvBCPU=        28.1
           NShGPU=           0 NBGPU=           0 AvBGPU=         0.0
 IPart=  2 NShTot=      184877 NShNF=      184877 NShFF=           0 MinMC=       3
           NShCPU=      184877 NBCPU=        7192 AvBCPU=        25.7
           NShGPU=           0 NBGPU=           0 AvBGPU=         0.0
 IPart=  3 NShTot=      210156 NShNF=      210156 NShFF=           0 MinMC=       3
           NShCPU=      210156 NBCPU=        7474 AvBCPU=        28.1
           NShGPU=           0 NBGPU=           0 AvBGPU=         0.0
 IPart=  0 NShTot=      219356 NShNF=      219356 NShFF=           0 MinMC=       3
           NShCPU=      219356 NBCPU=        8746 AvBCPU=        25.1
           NShGPU=           0 NBGPU=           0 AvBGPU=         0.0
 CoulSu:  NxtVal=         861185 LenVP=       24349302 MinMC=       3.
 Polarizability after L703:
                1             2             3 
      1  0.108046D+02
      2  0.000000D+00  0.151583D+02
      3  0.000000D+00  0.000000D+00  0.199193D+02
 Dipole Derivatives after L703:
                 1             2             3             4             5 
      1  -0.392807D+00  0.000000D+00  0.000000D+00  0.221274D+00  0.000000D+00
      2   0.000000D+00 -0.536849D+00  0.000000D+00  0.000000D+00  0.874582D+00
      3   0.000000D+00  0.000000D+00 -0.114786D+01  0.000000D+00  0.000000D+00
                 6             7             8             9            10 
      1   0.000000D+00  0.857665D-01  0.000000D+00  0.000000D+00  0.857665D-01
      2   0.000000D+00  0.000000D+00 -0.168866D+00  0.664744D-01  0.000000D+00
      3   0.120955D+01  0.000000D+00  0.135180D+00 -0.308411D-01  0.000000D+00
                11            12 
      1   0.000000D+00  0.000000D+00
      2  -0.168866D+00 -0.664744D-01
      3  -0.135180D+00 -0.308411D-01
 Hessian after L703:
                1             2             3             4             5 
      1  0.263299D-01
      2  0.000000D+00  0.891440D-01
      3  0.000000D+00  0.000000D+00  0.103759D+01
      4 -0.738752D-01  0.000000D+00  0.000000D+00  0.218502D+00
      5  0.000000D+00 -0.124791D+00  0.000000D+00  0.000000D+00  0.664339D+00
      6  0.000000D+00  0.000000D+00 -0.942866D+00  0.000000D+00  0.000000D+00
      7  0.237727D-01  0.000000D+00  0.000000D+00 -0.723135D-01  0.000000D+00
      8  0.000000D+00  0.178233D-01  0.175931D-01  0.000000D+00 -0.269774D+00
      9  0.000000D+00  0.436247D-01 -0.473644D-01  0.000000D+00  0.901916D-01
     10  0.237727D-01  0.000000D+00  0.000000D+00 -0.723135D-01  0.000000D+00
     11  0.000000D+00  0.178233D-01 -0.175931D-01  0.000000D+00 -0.269774D+00
     12  0.000000D+00 -0.436247D-01 -0.473644D-01  0.000000D+00 -0.901916D-01
                6             7             8             9            10 
      6  0.116630D+01
      7  0.000000D+00  0.244025D-01
      8  0.890098D-01  0.000000D+00  0.272394D+00
      9 -0.111719D+00  0.000000D+00 -0.120210D+00  0.148935D+00
     10  0.000000D+00  0.241384D-01  0.000000D+00  0.000000D+00  0.244025D-01
     11 -0.890098D-01  0.000000D+00 -0.204426D-01 -0.136067D-01  0.000000D+00
     12 -0.111719D+00  0.000000D+00  0.136067D-01  0.101483D-01  0.000000D+00
               11            12 
     11  0.272394D+00
     12  0.120210D+00  0.148935D+00
 Leave Link  703 at Tue Jul  9 11:08:17 2024, MaxMem=    97648640 cpu:             118.0 elap:              29.1
 (Enter /cluster/software/Gaussian/g16_B.01/l716.exe)
 FrcOut:
 IF    =        44 IFX   =        56 IFXYZ =        68
 IFFX  =        80 IFFFX =       158 IFLen =        12
 IFFLen=        78 IFFFLn=         0 IEDerv=       158
 LEDerv=       629 IFroze=       957 ICStrt=     59150
 Dipole        = 2.29236640D-15-2.49164653D-14-1.06277055D+00
 DipoleDeriv   =-3.92807144D-01-4.14168284D-16 1.18775125D-15
                -2.06555040D-15-5.36849288D-01-7.16170180D-15
                 3.28716022D-15 2.74393962D-14-1.14786426D+00
                 2.21274115D-01-3.54029246D-15-4.78281114D-15
                -3.32372892D-15 8.74581741D-01 1.85053579D-14
                -1.16470059D-14-4.10612635D-14 1.20954641D+00
                 8.57665147D-02 7.93642089D-16 3.16138946D-16
                 5.37875090D-16-1.68866226D-01 1.35179580D-01
                 1.63869754D-15 6.64744073D-02-3.08410777D-02
                 8.57665147D-02 3.16081865D-15 3.27892094D-15
                 4.85140423D-15-1.68866226D-01-1.35179580D-01
                 6.72114811D-15-6.64744073D-02-3.08410777D-02
 Polarizability= 1.08046189D+01 3.81107547D-14 1.51583008D+01
                 2.07885232D-14-2.99936755D-13 1.99193290D+01
 PolarDeriv    =-2.12619326D-13-3.93422289D-13-3.23564179D-14
                 3.60252400D+00 4.94864227D-14-5.86418674D-14
                 2.74215720D-13-8.71627950D-14-8.27569217D-13
                -4.92071857D-14 2.62738179D+00 1.57579119D-13
                 3.45646191D+00 2.88663801D-14-2.66703723D+00
                -9.21003418D-14 9.92400089D-13 1.13380244D+01
                 1.91831447D-12 5.24295019D-15 1.64400991D-13
                -2.61004994D+00-2.26439484D-13 4.36690891D-12
                 3.57519510D-14 5.80247336D-13 4.89377145D-12
                -3.40252445D-13 4.63445911D+00 5.35594358D-13
                -2.40967091D+00-1.26545809D-13 9.53360093D+00
                 3.63670552D-13 6.85215786D-13-5.33380595D+00
                -1.24422790D-12 1.24103894D+00-2.42890762D-13
                -4.96237032D-01 2.80317689D-13-1.74640647D-12
                 9.78718745D-01-5.45388383D-13 6.75264200D+00
                -2.65874775D-13-3.63092045D+00 2.02535859D+00
                -5.23395498D-01 6.27311016D-14-3.43328185D+00
                -5.63271546D-13 2.56674877D+00-3.00210922D+00
                -4.58515139D-13-1.24103894D+00 1.10846189D-13
                -4.96237032D-01-1.03364628D-13-2.56186057D-12
                -9.78718745D-01 5.37798925D-14-6.75264200D+00
                 6.55334405D-13-3.63092045D+00-2.02535859D+00
                -5.23395498D-01 3.49483273D-14-3.43328185D+00
                 2.93177387D-13-2.56674877D+00-3.00210922D+00
 HyperPolar    =-5.22591388D-13 2.25731483D-13-4.93289727D-15
                 1.51377769D-11-7.96928741D+00-1.62901908D-13
                -4.34394286D+01-2.42597566D-13 8.38435311D-12
                -3.99363215D+01
 Quadrupole    = 6.52232110D-02 2.21810910D-01-2.87034121D-01
                -1.46220300D-14-4.66540447D-15 2.98389847D-14
 -------------------------------------------------------------------
 Center     Atomic                   Forces (Hartrees/Bohr)
 Number     Number              X              Y              Z
 -------------------------------------------------------------------
      1        8          -0.000000000   -0.000000000   -0.006957464
      2        6           0.000000000   -0.000000000    0.007298551
      3        1          -0.000000000   -0.000463276   -0.000170543
      4        1           0.000000000    0.000463276   -0.000170543
 -------------------------------------------------------------------
 Cartesian Forces:  Max     0.007298551 RMS     0.002917798
 Force constants in Cartesian coordinates: 
                1             2             3             4             5 
      1  0.263299D-01
      2  0.000000D+00  0.891440D-01
      3  0.000000D+00  0.000000D+00  0.103759D+01
      4 -0.738752D-01  0.000000D+00  0.000000D+00  0.218502D+00
      5  0.000000D+00 -0.124791D+00  0.000000D+00  0.000000D+00  0.664339D+00
      6  0.000000D+00  0.000000D+00 -0.942866D+00  0.000000D+00  0.000000D+00
      7  0.237727D-01  0.000000D+00  0.000000D+00 -0.723135D-01  0.000000D+00
      8  0.000000D+00  0.178233D-01  0.175931D-01  0.000000D+00 -0.269774D+00
      9  0.000000D+00  0.436247D-01 -0.473644D-01  0.000000D+00  0.901916D-01
     10  0.237727D-01  0.000000D+00  0.000000D+00 -0.723135D-01  0.000000D+00
     11  0.000000D+00  0.178233D-01 -0.175931D-01  0.000000D+00 -0.269774D+00
     12  0.000000D+00 -0.436247D-01 -0.473644D-01  0.000000D+00 -0.901916D-01
                6             7             8             9            10 
      6  0.116630D+01
      7  0.000000D+00  0.244025D-01
      8  0.890098D-01  0.000000D+00  0.272394D+00
      9 -0.111719D+00  0.000000D+00 -0.120210D+00  0.148935D+00
     10  0.000000D+00  0.241384D-01  0.000000D+00  0.000000D+00  0.244025D-01
     11 -0.890098D-01  0.000000D+00 -0.204426D-01 -0.136067D-01  0.000000D+00
     12 -0.111719D+00  0.000000D+00  0.136067D-01  0.101483D-01  0.000000D+00
               11            12 
     11  0.272394D+00
     12  0.120210D+00  0.148935D+00
 Final forces over variables, Energy=-1.13922356D+02:
 -1.60880713D-07 1.78026753D-08 1.78026760D-08-3.41879592D-08
 -3.41879590D-08 6.83759182D-08 5.37191787D-16
 Leave Link  716 at Tue Jul  9 11:08:17 2024, MaxMem=    97648640 cpu:               0.4 elap:               0.0
 (Enter /cluster/software/Gaussian/g16_B.01/l106.exe)
 NDeriv=      6 NFrqRd=  0 NDerD0=      0 MskFDP=       0 MskDFD=       0 MskDF0=       0
 Re-enter D2Numr:  normal mode   4 step-up   number 1
 Leave Link  106 at Tue Jul  9 11:08:17 2024, MaxMem=    97648640 cpu:               1.7 elap:               0.1
 (Enter /cluster/software/Gaussian/g16_B.01/l301.exe)
 Standard basis: CC-pVQZ (5D, 7F)
 Ernie: Thresh=  0.10000D-02 Tol=  0.10000D-05 Strict=F.
 Ernie:  6 primitive shells out of 90 were deleted.
   170 basis functions,   252 primitive gaussians,   210 cartesian basis functions
     8 alpha electrons        8 beta electrons
       nuclear repulsion energy        32.0259393855 Hartrees.
 IExCor=    0 DFT=F Ex=HF Corr=None ExCW=0 ScaHFX=  1.000000
 ScaDFX=  1.000000  1.000000  1.000000  1.000000 ScalE2=  1.000000  1.000000
 IRadAn=      5 IRanWt=     -1 IRanGd=            0 ICorTp=0 IEmpDi=  4
 NAtoms=    4 NActive=    4 NUniq=    4 SFac= 1.00D+00 NAtFMM=   60 NAOKFM=F Big=F
 Integral buffers will be    131072 words long.
 Raffenetti 1 integral format.
 Two-electron integral symmetry is turned off.
 Leave Link  301 at Tue Jul  9 11:08:17 2024, MaxMem=    97648640 cpu:               0.8 elap:               0.1
 (Enter /cluster/software/Gaussian/g16_B.01/l302.exe)
 NPDir=0 NMtPBC=     1 NCelOv=     1 NCel=       1 NClECP=     1 NCelD=      1
         NCelK=      1 NCelE2=     1 NClLst=     1 CellRange=     0.0.
 One-electron integrals computed using PRISM.
 PrsmSu:  requested number of processors reduced to:   4 ShMem   1 Linda.
 NBasis=   170 RedAO= T EigKep=  2.32D-04  NBF=   170
 NBsUse=   170 1.00D-06 EigRej= -1.00D+00 NBFU=   170
 Leave Link  302 at Tue Jul  9 11:08:17 2024, MaxMem=    97648640 cpu:               2.2 elap:               0.2
 (Enter /cluster/software/Gaussian/g16_B.01/l303.exe)
 DipDrv:  MaxL=1.
 Leave Link  303 at Tue Jul  9 11:08:17 2024, MaxMem=    97648640 cpu:               0.4 elap:               0.1
 (Enter /cluster/software/Gaussian/g16_B.01/l401.exe)
 Initial guess from the checkpoint file:  "inputFull_3q.chk"
 B after Tr=    -0.000000    0.000000   -0.000070
         Rot=    1.000000   -0.000000   -0.000000    0.000000 Ang=   0.00 deg.
 Guess basis will be translated and rotated to current coordinates.
 JPrj=2 DoOrth=T DoCkMO=T.
 Leave Link  401 at Tue Jul  9 11:08:17 2024, MaxMem=    97648640 cpu:               1.5 elap:               0.1
 (Enter /cluster/software/Gaussian/g16_B.01/l502.exe)
 Two-electron integral symmetry not used.
 Closed shell SCF:
 Using DIIS extrapolation, IDIIS=  1040.
 NGot=    97648640 LenX=    97555748 LenY=    97511207
 Requested convergence on RMS density matrix=1.00D-08 within 128 cycles.
 Requested convergence on MAX density matrix=1.00D-06.
 Requested convergence on             energy=1.00D-06.
 No special actions if energy rises.
 Fock matrices will be formed incrementally for  20 cycles.

 Cycle   1  Pass 1  IDiag  1:
 FoFJK:  IHMeth= 1 ICntrl=       0 DoSepK=F KAlg= 0 I1Cent=           0 FoldK=F
 IRaf= 990000000 NMat=       1 IRICut=       1 DoRegI=T DoRafI=F ISym2E= 0 IDoP0=0 IntGTp=1.
 FoFCou: FMM=F IPFlag=           0 FMFlag=      100000 FMFlg1=           0
         NFxFlg=           0 DoJE=F BraDBF=F KetDBF=F FulRan=T
         wScrn=  0.000000 ICntrl=         0 IOpCl=  0 I1Cent=           0 NGrid=           0
         NMat0=    1 NMatS0=      1 NMatT0=    0 NMatD0=    1 NMtDS0=    0 NMtDT0=    0
 Symmetry not used in FoFCou.
 E= -113.922341965027    
 DIIS: error= 3.90D-04 at cycle   1 NSaved=   1.
 NSaved= 1 IEnMin= 1 EnMin= -113.922341965027     IErMin= 1 ErrMin= 3.90D-04
 ErrMax= 3.90D-04  0.00D+00 EMaxC= 1.00D-01 BMatC= 1.69D-05 BMatP= 1.69D-05
 IDIUse=3 WtCom= 9.96D-01 WtEn= 3.90D-03
 Coeff-Com:  0.100D+01
 Coeff-En:   0.100D+01
 Coeff:      0.100D+01
 Gap=     2.589 Goal=   None    Shift=    0.000
 RMSDP=1.11D-05 MaxDP=2.35D-04              OVMax= 1.07D-03

 Cycle   2  Pass 1  IDiag  1:
 RMSU=  1.11D-05    CP:  1.00D+00
 E= -113.922353639891     Delta-E=       -0.000011674864 Rises=F Damp=F
 DIIS: error= 1.57D-04 at cycle   2 NSaved=   2.
 NSaved= 2 IEnMin= 2 EnMin= -113.922353639891     IErMin= 2 ErrMin= 1.57D-04
 ErrMax= 1.57D-04  0.00D+00 EMaxC= 1.00D-01 BMatC= 1.76D-06 BMatP= 1.69D-05
 IDIUse=3 WtCom= 9.98D-01 WtEn= 1.57D-03
 Coeff-Com:  0.107D+00 0.893D+00
 Coeff-En:   0.000D+00 0.100D+01
 Coeff:      0.107D+00 0.893D+00
 Gap=     0.557 Goal=   None    Shift=    0.000
 RMSDP=7.81D-06 MaxDP=2.46D-04 DE=-1.17D-05 OVMax= 5.89D-04

 Cycle   3  Pass 1  IDiag  1:
 RMSU=  7.63D-06    CP:  1.00D+00  1.14D+00
 E= -113.922354964026     Delta-E=       -0.000001324135 Rises=F Damp=F
 DIIS: error= 5.78D-05 at cycle   3 NSaved=   3.
 NSaved= 3 IEnMin= 3 EnMin= -113.922354964026     IErMin= 3 ErrMin= 5.78D-05
 ErrMax= 5.78D-05  0.00D+00 EMaxC= 1.00D-01 BMatC= 4.03D-07 BMatP= 1.76D-06
 IDIUse=1 WtCom= 1.00D+00 WtEn= 0.00D+00
 Coeff-Com: -0.551D-01 0.257D+00 0.798D+00
 Coeff:     -0.551D-01 0.257D+00 0.798D+00
 Gap=     0.557 Goal=   None    Shift=    0.000
 RMSDP=1.85D-06 MaxDP=4.84D-05 DE=-1.32D-06 OVMax= 2.14D-04

 Cycle   4  Pass 1  IDiag  1:
 RMSU=  1.29D-06    CP:  1.00D+00  1.26D+00  9.74D-01
 E= -113.922355309218     Delta-E=       -0.000000345192 Rises=F Damp=F
 DIIS: error= 2.52D-05 at cycle   4 NSaved=   4.
 NSaved= 4 IEnMin= 4 EnMin= -113.922355309218     IErMin= 4 ErrMin= 2.52D-05
 ErrMax= 2.52D-05  0.00D+00 EMaxC= 1.00D-01 BMatC= 2.53D-08 BMatP= 4.03D-07
 IDIUse=1 WtCom= 1.00D+00 WtEn= 0.00D+00
 Coeff-Com: -0.160D-01-0.488D-01 0.116D+00 0.949D+00
 Coeff:     -0.160D-01-0.488D-01 0.116D+00 0.949D+00
 Gap=     0.557 Goal=   None    Shift=    0.000
 RMSDP=9.27D-07 MaxDP=2.48D-05 DE=-3.45D-07 OVMax= 8.97D-05

 Cycle   5  Pass 1  IDiag  1:
 RMSU=  4.88D-07    CP:  1.00D+00  1.29D+00  1.06D+00  1.15D+00
 E= -113.922355343735     Delta-E=       -0.000000034517 Rises=F Damp=F
 DIIS: error= 6.32D-06 at cycle   5 NSaved=   5.
 NSaved= 5 IEnMin= 5 EnMin= -113.922355343735     IErMin= 5 ErrMin= 6.32D-06
 ErrMax= 6.32D-06  0.00D+00 EMaxC= 1.00D-01 BMatC= 1.45D-09 BMatP= 2.53D-08
 IDIUse=1 WtCom= 1.00D+00 WtEn= 0.00D+00
 Coeff-Com:  0.489D-02-0.242D-01-0.708D-01 0.385D-01 0.105D+01
 Coeff:      0.489D-02-0.242D-01-0.708D-01 0.385D-01 0.105D+01
 Gap=     0.557 Goal=   None    Shift=    0.000
 RMSDP=3.36D-07 MaxDP=1.09D-05 DE=-3.45D-08 OVMax= 3.30D-05

 Cycle   6  Pass 1  IDiag  1:
 RMSU=  1.13D-07    CP:  1.00D+00  1.30D+00  1.09D+00  1.29D+00  1.25D+00
 E= -113.922355346477     Delta-E=       -0.000000002742 Rises=F Damp=F
 DIIS: error= 8.65D-07 at cycle   6 NSaved=   6.
 NSaved= 6 IEnMin= 6 EnMin= -113.922355346477     IErMin= 6 ErrMin= 8.65D-07
 ErrMax= 8.65D-07  0.00D+00 EMaxC= 1.00D-01 BMatC= 4.51D-11 BMatP= 1.45D-09
 IDIUse=1 WtCom= 1.00D+00 WtEn= 0.00D+00
 Coeff-Com: -0.490D-03 0.780D-02 0.828D-02-0.523D-01-0.215D+00 0.125D+01
 Coeff:     -0.490D-03 0.780D-02 0.828D-02-0.523D-01-0.215D+00 0.125D+01
 Gap=     0.557 Goal=   None    Shift=    0.000
 RMSDP=8.75D-08 MaxDP=2.40D-06 DE=-2.74D-09 OVMax= 6.28D-06

 Cycle   7  Pass 1  IDiag  1:
 RMSU=  1.60D-08    CP:  1.00D+00  1.30D+00  1.09D+00  1.31D+00  1.37D+00
                    CP:  1.46D+00
 E= -113.922355346574     Delta-E=       -0.000000000096 Rises=F Damp=F
 DIIS: error= 1.46D-07 at cycle   7 NSaved=   7.
 NSaved= 7 IEnMin= 7 EnMin= -113.922355346574     IErMin= 7 ErrMin= 1.46D-07
 ErrMax= 1.46D-07  0.00D+00 EMaxC= 1.00D-01 BMatC= 1.03D-12 BMatP= 4.51D-11
 IDIUse=1 WtCom= 1.00D+00 WtEn= 0.00D+00
 Coeff-Com: -0.566D-04-0.255D-03 0.350D-03 0.782D-02 0.128D-02-0.180D+00
 Coeff-Com:  0.117D+01
 Coeff:     -0.566D-04-0.255D-03 0.350D-03 0.782D-02 0.128D-02-0.180D+00
 Coeff:      0.117D+01
 Gap=     0.557 Goal=   None    Shift=    0.000
 RMSDP=1.22D-08 MaxDP=4.37D-07 DE=-9.63D-11 OVMax= 5.02D-07

 Cycle   8  Pass 1  IDiag  1:
 RMSU=  3.12D-09    CP:  1.00D+00  1.30D+00  1.09D+00  1.31D+00  1.38D+00
                    CP:  1.53D+00  1.42D+00
 E= -113.922355346575     Delta-E=       -0.000000000002 Rises=F Damp=F
 DIIS: error= 1.75D-08 at cycle   8 NSaved=   8.
 NSaved= 8 IEnMin= 8 EnMin= -113.922355346575     IErMin= 8 ErrMin= 1.75D-08
 ErrMax= 1.75D-08  0.00D+00 EMaxC= 1.00D-01 BMatC= 2.56D-14 BMatP= 1.03D-12
 IDIUse=1 WtCom= 1.00D+00 WtEn= 0.00D+00
 Coeff-Com:  0.255D-04-0.190D-03-0.398D-03 0.276D-03 0.682D-02-0.710D-02
 Coeff-Com: -0.208D+00 0.121D+01
 Coeff:      0.255D-04-0.190D-03-0.398D-03 0.276D-03 0.682D-02-0.710D-02
 Coeff:     -0.208D+00 0.121D+01
 Gap=     0.557 Goal=   None    Shift=    0.000
 RMSDP=3.12D-09 MaxDP=1.08D-07 DE=-1.73D-12 OVMax= 1.37D-07

 SCF Done:  E(RHF) =  -113.922355347     A.U. after    8 cycles
            NFock=  8  Conv=0.31D-08     -V/T= 1.9999
 KE= 1.139378301300D+02 PE=-3.327301832925D+02 EE= 7.284405843039D+01
 Leave Link  502 at Tue Jul  9 11:08:24 2024, MaxMem=    97648640 cpu:             109.5 elap:               6.9
 (Enter /cluster/software/Gaussian/g16_B.01/l801.exe)
 Range of M.O.s used for correlation:     1   170
 NBasis=   170 NAE=     8 NBE=     8 NFC=     0 NFV=     0
 NROrb=    170 NOA=     8 NOB=     8 NVA=   162 NVB=   162

 **** Warning!!: The largest alpha MO coefficient is  0.16518439D+02

 Leave Link  801 at Tue Jul  9 11:08:24 2024, MaxMem=    97648640 cpu:               0.3 elap:               0.0
 (Enter /cluster/software/Gaussian/g16_B.01/l1002.exe)
 Minotr:  Closed shell wavefunction.
          Direct CPHF calculation.
          Differentiating once with respect to electric field.
                with respect to dipole field.
          Electric field/nuclear overlap derivatives assumed to be zero.
          Requested convergence is 1.0D-08 RMS, and 1.0D-07 maximum.
          Secondary convergence is 1.0D-12 RMS, and 1.0D-12 maximum.
          NewPWx=F KeepS1=T KeepF1=T KeepIn=T MapXYZ=F SortEE=F KeepMc=T.
 Two-electron integral symmetry not used.
          MDV=      97648640 using IRadAn=       4.
          Solving linear equations simultaneously, MaxMat=     384.
          There are     3 degrees of freedom in the 1st order CPHF.  IDoFFX=0 NUNeed=     3.
      3 vectors produced by pass  0 Test12= 4.32D-14 3.33D-08 XBig12= 5.11D+00 1.47D+00.
 AX will form     3 AO Fock derivatives at one time.
 FoFJK:  IHMeth= 1 ICntrl=       0 DoSepK=F KAlg= 0 I1Cent=           0 FoldK=F
 IRaf= 990000000 NMat=       3 IRICut=       1 DoRegI=T DoRafI=F ISym2E= 0 IDoP0=0 IntGTp=1.
 FoFCou: FMM=F IPFlag=           0 FMFlag=      100000 FMFlg1=           0
         NFxFlg=           0 DoJE=F BraDBF=F KetDBF=F FulRan=T
         wScrn=  0.000000 ICntrl=         0 IOpCl=  0 I1Cent=           0 NGrid=           0
         NMat0=    3 NMatS0=      3 NMatT0=    0 NMatD0=    3 NMtDS0=    0 NMtDT0=    0
 Symmetry not used in FoFCou.
      3 vectors produced by pass  1 Test12= 4.32D-14 3.33D-08 XBig12= 6.83D-01 2.26D-01.
      3 vectors produced by pass  2 Test12= 4.32D-14 3.33D-08 XBig12= 6.04D-02 9.27D-02.
      3 vectors produced by pass  3 Test12= 4.32D-14 3.33D-08 XBig12= 2.27D-03 1.86D-02.
      3 vectors produced by pass  4 Test12= 4.32D-14 3.33D-08 XBig12= 8.53D-05 3.65D-03.
      3 vectors produced by pass  5 Test12= 4.32D-14 3.33D-08 XBig12= 8.38D-06 1.07D-03.
      3 vectors produced by pass  6 Test12= 4.32D-14 3.33D-08 XBig12= 1.01D-07 9.41D-05.
      3 vectors produced by pass  7 Test12= 4.32D-14 3.33D-08 XBig12= 1.28D-09 1.14D-05.
      3 vectors produced by pass  8 Test12= 4.32D-14 3.33D-08 XBig12= 1.33D-11 9.82D-07.
      1 vectors produced by pass  9 Test12= 4.32D-14 3.33D-08 XBig12= 3.31D-13 2.04D-07.
 InvSVY:  IOpt=1 It=  1 EMax= 1.86D-16
 Solved reduced A of dimension    28 with     3 vectors.
 End of Minotr F.D. properties file   721 does not exist.
 End of Minotr F.D. properties file   722 does not exist.
 End of Minotr F.D. properties file   788 does not exist.
 Leave Link 1002 at Tue Jul  9 11:08:33 2024, MaxMem=    97648640 cpu:             145.0 elap:               9.1
 (Enter /cluster/software/Gaussian/g16_B.01/l1101.exe)
 Using compressed storage, NAtomX=     4.
 Will process      5 centers per pass.
 PrsmSu:  requested number of processors reduced to:   2 ShMem   1 Linda.
 PrsmSu:  requested number of processors reduced to:   9 ShMem   1 Linda.
 Leave Link 1101 at Tue Jul  9 11:08:34 2024, MaxMem=    97648640 cpu:               1.5 elap:               0.2
 (Enter /cluster/software/Gaussian/g16_B.01/l1102.exe)
 Symmetrizing basis deriv contribution to polar:
 IMax=3 JMax=2 DiffMx= 0.00D+00
 Leave Link 1102 at Tue Jul  9 11:08:34 2024, MaxMem=    97648640 cpu:               0.4 elap:               0.1
 (Enter /cluster/software/Gaussian/g16_B.01/l1110.exe)
 Forming Gx(P) for the SCF density, NAtomX=     4.
 Integral derivatives from FoFJK, PRISM(SPDF).
 Do as many integral derivatives as possible in FoFJK.
 G2DrvN: MDV=      97648192.
 G2DrvN: will do     3 centers at a time, making    2 passes.
 Estimated number of processors is:   10
 G2DrvN:  IPasSy=1 do centers    0 through    2.
 PxScal for G2LodP:  IOpCl= 0 ISclPx=1 IMOff=     1 NMtTot=     4 NTT=   14535 ScalPx= 2.50D+00
 Calling FoFCou, ICntrl=  3107 FMM=F I1Cent=   0 AccDes= 0.00D+00.
 FoFJK:  IHMeth= 1 ICntrl=    3107 DoSepK=F KAlg= 0 I1Cent=           0 FoldK=F
 IRaf=         0 NMat=       1 IRICut=       1 DoRegI=T DoRafI=F ISym2E= 0 IDoP0=0 IntGTp=1.
 FoFCou: FMM=F IPFlag=           0 FMFlag=      100000 FMFlg1=           0
         NFxFlg=           0 DoJE=F BraDBF=F KetDBF=F FulRan=T
         wScrn=  0.000000 ICntrl=      3107 IOpCl=  0 I1Cent=           0 NGrid=           0
         NMat0=    1 NMatS0=      1 NMatT0=    0 NMatD0=    4 NMtDS0=    3 NMtDT0=    0
 Symmetry not used in FoFCou.
 CoulSu:  requested number of processors reduced to:  10 ShMem   1 Linda.
 G2DrvN:  IPasSy=1 do centers    3 through    4.
 PxScal for G2LodP:  IOpCl= 0 ISclPx=1 IMOff=     1 NMtTot=     4 NTT=   14535 ScalPx= 2.50D+00
 Calling FoFCou, ICntrl=  3107 FMM=F I1Cent=   0 AccDes= 0.00D+00.
 CoulSu:  requested number of processors reduced to:  10 ShMem   1 Linda.
 End of G2Drv F.D. properties file   721 does not exist.
 End of G2Drv F.D. properties file   722 does not exist.
 End of G2Drv F.D. properties file   788 does not exist.
 Leave Link 1110 at Tue Jul  9 11:08:45 2024, MaxMem=    97648640 cpu:             111.9 elap:              11.1
 (Enter /cluster/software/Gaussian/g16_B.01/l1002.exe)
 Minotr:  Closed shell wavefunction.
          IDoAtm=1111
          Direct CPHF calculation.
          Differentiating once with respect to electric field.
                with respect to dipole field.
          Differentiating once with respect to nuclear coordinates.
          Requested convergence is 1.0D-08 RMS, and 1.0D-07 maximum.
          Secondary convergence is 1.0D-12 RMS, and 1.0D-12 maximum.
          NewPWx=T KeepS1=F KeepF1=F KeepIn=T MapXYZ=F SortEE=F KeepMc=T.
 Two-electron integral symmetry not used.
          MDV=      97648640 using IRadAn=       4.
          Solving linear equations simultaneously, MaxMat=     384.
 FoF2E skips out because all densities are zero.
 FoFJK:  IHMeth= 1 ICntrl=       0 DoSepK=F KAlg= 0 I1Cent=           0 FoldK=F
 IRaf= 990000000 NMat=       4 IRICut=       1 DoRegI=T DoRafI=F ISym2E= 0 IDoP0=0 IntGTp=1.
 FoFCou: FMM=F IPFlag=           0 FMFlag=      100000 FMFlg1=           0
         NFxFlg=           0 DoJE=F BraDBF=F KetDBF=F FulRan=T
         wScrn=  0.000000 ICntrl=         0 IOpCl=  0 I1Cent=           0 NGrid=           0
         NMat0=    4 NMatS0=      4 NMatT0=    0 NMatD0=    4 NMtDS0=    0 NMtDT0=    0
 Symmetry not used in FoFCou.
          There are    15 degrees of freedom in the 1st order CPHF.  IDoFFX=5 NUNeed=    15.
 Will reuse    3 saved solutions.
      9 vectors produced by pass  0 Test12= 8.64D-15 6.67D-09 XBig12= 6.20D-02 9.01D-02.
 AX will form     3 AO Fock derivatives at one time.
      9 vectors produced by pass  1 Test12= 8.64D-15 6.67D-09 XBig12= 1.04D-02 4.73D-02.
      9 vectors produced by pass  2 Test12= 8.64D-15 6.67D-09 XBig12= 2.26D-04 5.75D-03.
      9 vectors produced by pass  3 Test12= 8.64D-15 6.67D-09 XBig12= 2.24D-06 4.64D-04.
      9 vectors produced by pass  4 Test12= 8.64D-15 6.67D-09 XBig12= 2.54D-08 5.83D-05.
      9 vectors produced by pass  5 Test12= 8.64D-15 6.67D-09 XBig12= 2.30D-10 5.56D-06.
      9 vectors produced by pass  6 Test12= 8.64D-15 6.67D-09 XBig12= 2.97D-12 6.66D-07.
      5 vectors produced by pass  7 Test12= 8.64D-15 6.67D-09 XBig12= 1.98D-14 3.01D-08.
 InvSVY:  IOpt=1 It=  1 EMax= 4.44D-16
 Solved reduced A of dimension    68 with     9 vectors.
 FullF1:  Do perturbations      1 to       3.
 Isotropic polarizability for W=    0.000000       15.25 Bohr**3.
 FullF1:  Do perturbations      1 to       3.
 FullF1:  Do perturbations      4 to       6.
 End of Minotr F.D. properties file   721 does not exist.
 End of Minotr F.D. properties file   722 does not exist.
 End of Minotr F.D. properties file   788 does not exist.
 Leave Link 1002 at Tue Jul  9 11:09:14 2024, MaxMem=    97648640 cpu:             469.4 elap:              29.5
 (Enter /cluster/software/Gaussian/g16_B.01/l601.exe)
 Copying SCF densities to generalized density rwf, IOpCl= 0 IROHF=0.

 **********************************************************************

            Population analysis using the SCF Density.

 **********************************************************************

 Alpha  occ. eigenvalues --  -20.57215 -11.33104  -1.42678  -0.86802  -0.70318
 Alpha  occ. eigenvalues --   -0.66122  -0.55072  -0.43902
 Alpha virt. eigenvalues --    0.11764   0.12261   0.17662   0.21819   0.33665
 Alpha virt. eigenvalues --    0.34453   0.34526   0.46824   0.47905   0.54123
 Alpha virt. eigenvalues --    0.54372   0.63090   0.65208   0.67601   0.74529
 Alpha virt. eigenvalues --    0.75002   0.81838   0.86953   0.90577   0.95772
 Alpha virt. eigenvalues --    1.02661   1.08156   1.12120   1.14246   1.22108
 Alpha virt. eigenvalues --    1.34105   1.46273   1.46983   1.50944   1.54486
 Alpha virt. eigenvalues --    1.63195   1.63222   1.73435   1.78757   1.87760
 Alpha virt. eigenvalues --    1.92451   2.02398   2.04112   2.04833   2.07555
 Alpha virt. eigenvalues --    2.10838   2.13809   2.29038   2.36673   2.37969
 Alpha virt. eigenvalues --    2.38117   2.48154   2.58320   2.61713   2.66560
 Alpha virt. eigenvalues --    2.66711   2.79208   2.81399   2.88006   2.90769
 Alpha virt. eigenvalues --    3.09899   3.10313   3.20137   3.22140   3.42682
 Alpha virt. eigenvalues --    3.48892   3.58097   3.62980   3.67701   3.70753
 Alpha virt. eigenvalues --    3.72573   3.75183   3.89522   4.05279   4.05596
 Alpha virt. eigenvalues --    4.13475   4.33169   4.38309   4.40093   4.58566
 Alpha virt. eigenvalues --    4.61889   4.70836   4.73064   5.06626   5.08084
 Alpha virt. eigenvalues --    5.38009   5.42246   5.51460   5.53866   5.67941
 Alpha virt. eigenvalues --    5.72695   5.84406   6.01770   6.04185   6.11212
 Alpha virt. eigenvalues --    6.20279   6.26522   6.27351   6.28152   6.34279
 Alpha virt. eigenvalues --    6.36642   6.41372   6.50310   6.63652   6.74311
 Alpha virt. eigenvalues --    6.76772   6.78741   6.93089   7.01821   7.23091
 Alpha virt. eigenvalues --    7.48254   7.58573   7.72160   7.72536   7.75503
 Alpha virt. eigenvalues --    7.81704   7.85087   7.87840   7.97767   8.04834
 Alpha virt. eigenvalues --    8.06894   8.28129   8.30125   8.46877   8.50214
 Alpha virt. eigenvalues --    8.53747   8.59034   8.77447   8.87655   8.89376
 Alpha virt. eigenvalues --    8.98941   9.29798   9.35257   9.38090   9.45459
 Alpha virt. eigenvalues --    9.59941   9.67491   9.93851  10.16457  10.27841
 Alpha virt. eigenvalues --   10.30543  10.36990  10.58172  10.63711  10.72542
 Alpha virt. eigenvalues --   10.76380  10.95920  11.13219  11.26507  11.42443
 Alpha virt. eigenvalues --   11.59928  11.62290  11.62295  11.84183  12.00243
 Alpha virt. eigenvalues --   12.24069  12.37930  12.60163  12.77145  12.92585
 Alpha virt. eigenvalues --   13.00035  13.38686  13.95020  14.49691  14.70395
 Alpha virt. eigenvalues --   25.97909  42.83406
          Condensed to atoms (all electrons):
               1          2          3          4
     1  O    7.838551   0.686684  -0.081303  -0.081303
     2  C    0.686684   4.196319   0.393901   0.393901
     3  H   -0.081303   0.393901   0.822037  -0.151352
     4  H   -0.081303   0.393901  -0.151352   0.822037
 Mulliken charges:
               1
     1  O   -0.362629
     2  C    0.329195
     3  H    0.016717
     4  H    0.016717
 Sum of Mulliken charges =  -0.00000
 Mulliken charges with hydrogens summed into heavy atoms:
               1
     1  O   -0.362629
     2  C    0.362629
 APT charges:
               1
     1  O   -0.696070
     2  C    0.782298
     3  H   -0.043114
     4  H   -0.043114
 Sum of APT charges =  -0.00000
 APT charges with hydrogens summed into heavy atoms:
               1
     1  O   -0.696070
     2  C    0.696070
 Electronic spatial extent (au):  <R**2>=             58.8312
 Charge=             -0.0000 electrons
 Dipole moment (field-independent basis, Debye):
    X=              0.0000    Y=             -0.0000    Z=             -2.6627  Tot=              2.6627
 Quadrupole moment (field-independent basis, Debye-Ang):
   XX=            -11.5821   YY=            -11.4234   ZZ=            -12.0857
   XY=             -0.0000   XZ=             -0.0000   YZ=             -0.0000
 Traceless Quadrupole moment (field-independent basis, Debye-Ang):
   XX=              0.1150   YY=              0.2736   ZZ=             -0.3886
   XY=             -0.0000   XZ=             -0.0000   YZ=             -0.0000
 Octapole moment (field-independent basis, Debye-Ang**2):
  XXX=              0.0000  YYY=             -0.0000  ZZZ=              0.2590  XYY=              0.0000
  XXY=              0.0000  XXZ=              0.4613  XZZ=              0.0000  YZZ=             -0.0000
  YYZ=             -0.5635  XYZ=             -0.0000
 Hexadecapole moment (field-independent basis, Debye-Ang**3):
 XXXX=            -10.0672 YYYY=            -17.3437 ZZZZ=            -43.3187 XXXY=             -0.0000
 XXXZ=             -0.0000 YYYX=             -0.0000 YYYZ=             -0.0000 ZZZX=             -0.0000
 ZZZY=              0.0000 XXYY=             -4.9114 XXZZ=             -8.8292 YYZZ=             -9.7002
 XXYZ=              0.0000 YYXZ=             -0.0000 ZZXY=             -0.0000
 N-N= 3.202593938549D+01 E-N=-3.327301835010D+02  KE= 1.139378301300D+02
  Exact polarizability:  10.755   0.000  15.186   0.000  -0.000  19.800
 Approx polarizability:  10.414   0.000  12.371   0.000  -0.000  17.283
 No NMR shielding tensors so no spin-rotation constants.
 Leave Link  601 at Tue Jul  9 11:09:15 2024, MaxMem=    97648640 cpu:               2.6 elap:               0.2
 (Enter /cluster/software/Gaussian/g16_B.01/l701.exe)
 SCFChk:  SCF convergence  3.12D-09 required  1.00D-08
 ... and contract with generalized density number  0.
 Compute integral second derivatives.
 Entering OneElI...
 Calculate overlap and kinetic energy integrals
    NBasis = 210  MinDer = 2  MaxDer = 2
 Requested accuracy = 0.1000D-12
 PrsmSu:  requested number of processors reduced to:   1 ShMem   1 Linda.
 PrmmSu-InSpLW:  IPartL=    0 NPrtUS=    1 NPrtUL=    1 DoSpLW=F IThBeg=    0 IThEnd=    0 NThAct=    1.
 PrSmSu:  IncTry=   512 NBBP=           1275 NTPThr=   100 NPartT=    1 Incr=          12 LDynOK=F GPUOK=F.
 PrsmSu:  NPrtUS=   1 ThrOK=F IAlg=2 LenDen=           0 ISkipM=0 DoSpLW=F IThBeg=    0 IThEnd=    0.
 Prism:   IPart=     0 DynPar=F LinDyn=F Incr=          12.
 PRISM was handed    97371836 working-precision words and  1275 shell-pairs
 IPart=  0 NShTot=        1275 NBatch=          77 AvBLen=        16.6
 PrSmSu:  NxtVal=             13.
 Entering OneElI...
 Calculate potential energy integrals
    NBasis = 210  MinDer = 2  MaxDer = 2
 Requested accuracy = 0.1000D-12
 PrsmSu:  requested number of processors reduced to:   4 ShMem   1 Linda.
 PrmmSu-InSpLW:  IPartL=    0 NPrtUS=    4 NPrtUL=    1 DoSpLW=F IThBeg=    0 IThEnd=    3 NThAct=    4.
 PrSmSu:  IncTry=   512 NBBP=           5092 NTPThr=   100 NPartT=    4 Incr=          12 LDynOK=F GPUOK=F.
 PrsmSu:  NPrtUS=   4 ThrOK=T IAlg=2 LenDen=           0 ISkipM=0 DoSpLW=F IThBeg=    0 IThEnd=    3.
 Prism:   IPart=     0 DynPar=F LinDyn=F Incr=          12.
 PRISM was handed    24334029 working-precision words and  1273 shell-pairs
 PRISM was handed    24334029 working-precision words and  1273 shell-pairs
 PRISM was handed    24334029 working-precision words and  1273 shell-pairs
 PRISM was handed    24334029 working-precision words and  1273 shell-pairs
 IPart=  0 NShTot=        1332 NBatch=         333 AvBLen=         4.0
 IPart=  2 NShTot=        1236 NBatch=         309 AvBLen=         4.0
 IPart=  3 NShTot=        1224 NBatch=         306 AvBLen=         4.0
 IPart=  1 NShTot=        1300 NBatch=         325 AvBLen=         4.0
 PrSmSu:  NxtVal=             49.
 Polarizability after L701:
                1             2             3 
      1  0.107554D+02
      2  0.000000D+00  0.151861D+02
      3  0.000000D+00  0.000000D+00  0.198005D+02
 Dipole Derivatives after L701:
                 1             2             3             4             5 
      1  -0.389977D+00  0.000000D+00  0.000000D+00  0.223178D+00  0.000000D+00
      2   0.000000D+00 -0.536155D+00  0.000000D+00  0.000000D+00  0.890208D+00
      3   0.000000D+00  0.000000D+00 -0.116208D+01  0.000000D+00  0.000000D+00
                 6             7             8             9            10 
      1   0.000000D+00  0.833996D-01  0.000000D+00  0.000000D+00  0.833996D-01
      2   0.000000D+00  0.000000D+00 -0.177027D+00  0.710875D-01  0.000000D+00
      3   0.123351D+01  0.000000D+00  0.137686D+00 -0.357155D-01  0.000000D+00
                11            12 
      1   0.000000D+00  0.000000D+00
      2  -0.177027D+00 -0.710875D-01
      3  -0.137686D+00 -0.357155D-01
 Hessian after L701:
                1             2             3             4             5 
      1  0.131871D+02
      2  0.000000D+00  0.106940D+02
      3  0.000000D+00  0.000000D+00 -0.806755D+00
      4 -0.133257D+02  0.000000D+00  0.000000D+00  0.181414D+02
      5  0.000000D+00 -0.118281D+02  0.000000D+00  0.000000D+00  0.144116D+02
      6  0.000000D+00  0.000000D+00  0.132841D+01  0.000000D+00  0.000000D+00
      7  0.692838D-01  0.000000D+00  0.000000D+00 -0.240785D+01  0.000000D+00
      8  0.000000D+00  0.567086D+00 -0.275821D+00  0.000000D+00 -0.129174D+01
      9  0.000000D+00 -0.321675D+00 -0.260828D+00  0.000000D+00 -0.903739D+00
     10  0.692838D-01  0.000000D+00  0.000000D+00 -0.240785D+01  0.000000D+00
     11  0.000000D+00  0.567086D+00  0.275821D+00  0.000000D+00 -0.129174D+01
     12  0.000000D+00  0.321675D+00 -0.260828D+00  0.000000D+00  0.903739D+00
                6             7             8             9            10 
      6  0.246817D+01
      7  0.000000D+00  0.204911D+01
      8 -0.799145D+00  0.000000D+00  0.127259D+01
      9 -0.189829D+01  0.000000D+00  0.115019D+01  0.183923D+01
     10  0.000000D+00  0.289453D+00  0.000000D+00  0.000000D+00  0.204911D+01
     11  0.799145D+00  0.000000D+00 -0.547936D+00  0.752241D-01  0.000000D+00
     12 -0.189829D+01  0.000000D+00 -0.752241D-01  0.319889D+00  0.000000D+00
               11            12 
     11  0.127259D+01
     12 -0.115019D+01  0.183923D+01
 Leave Link  701 at Tue Jul  9 11:09:15 2024, MaxMem=    97648640 cpu:               1.0 elap:               0.3
 (Enter /cluster/software/Gaussian/g16_B.01/l702.exe)
 L702 exits ... SP integral derivatives will be done elsewhere.
 Leave Link  702 at Tue Jul  9 11:09:15 2024, MaxMem=    97648640 cpu:               0.3 elap:               0.0
 (Enter /cluster/software/Gaussian/g16_B.01/l703.exe)
 Integral derivatives from FoFJK, PRISM(SPDF).
 Compute integral second derivatives, UseDBF=F ICtDFT=           0.
 ICntrl=    100127.
 Calling FoFJK, ICntrl=    100127 FMM=F ISym2X=0 I1Cent= 0 IOpClX= 0 NMat=1 NMatS=1 NMatT=0.
 FoFJK:  IHMeth= 1 ICntrl=  100127 DoSepK=F KAlg= 0 I1Cent=           0 FoldK=F
 IRaf=         0 NMat=       1 IRICut=       1 DoRegI=T DoRafI=F ISym2E= 0 IDoP0=0 IntGTp=1.
 FoFCou: FMM=F IPFlag=           0 FMFlag=      100000 FMFlg1=         800
         NFxFlg=           0 DoJE=F BraDBF=F KetDBF=F FulRan=T
         wScrn=  0.000000 ICntrl=    100127 IOpCl=  0 I1Cent=           0 NGrid=           0
         NMat0=    1 NMatS0=      1 NMatT0=    0 NMatD0=    1 NMtDS0=    0 NMtDT0=    0
 Symmetry not used in FoFCou.
 FoFCou:  KetSym=F NOpSet=  1 NOpAb=1 NOp=  1.
 FoFCou:  CnvScl= 1.00D+00 Thresh= 1.00D-12 IAcrcy=      10.
 PrismS was handed    97482780 working-precision words and  1275 shell-pairs
 FoFCou: LinMIO=F DoNuc=F BraDBF=F KetDBF=F HaveP=T PDBF=F HaveZ=T HaveW=F
         NIJTC =      15 NIJTAt=       0 NIJTCD=       0 NIJTT =      15
         IJTBeg=       1 IJTEnd=      15 KLTBeg=       1 KLTEnd=      15
         IPTBeg=       1 IPTEnd=      15 IPTBCv=       1 IPTECv=      15
         IZTBeg=       1 IZTEnd=      15 IZTBCv=       1 IZTECv=      15
         IWTBeg=      16 IWTEnd=      15 IWTBCv=      16 IWTECv=      15
         INTBeg=       1 INTEnd=       0 IFTBCv=       1 IFTECv=      15
 NCel replicated for PrismC:     1
 CoulSu:  requested number of processors reduced to:   4 ShMem   1 Linda.
 CoulSu-InSpLW:  IPartL=    0 NPrtUS=    4 NPrtUL=    1 DoSpLW=F IThBeg=    0 IThEnd=    3 NThAct=    4.
 CoulSu:  IncTry=  1024 NBBP=         813450 NTPThr=   100 NPartT=    4 Incr=        1024 LDynOK=F GPUOK=F.
 CoulSu:  NPrtUS=   4 ThrOK=T IAlg=2 LenDen=           0 LWGrdD=           0 DoCopy=F ISkipM=0
          DoSpLW=F IThBeg=    0 IThEnd=    3.
 Enter PrismC:  IPart=  0 JobTyp=22 DoJE=F Cont=F.
 PrismC:  IPart=     0 DynPar=T LinDyn=F Incr=        1024 UseFst=F UseS4=T ISplat=2.
 PrismC was handed    24349301 working-precision words and  1275 shell-pairs
 Enter PrismC:  IPart=  1 JobTyp=22 DoJE=F Cont=F.
 Enter PrismC:  IPart=  3 JobTyp=22 DoJE=F Cont=F.
 PrismC:  IPart=     1 DynPar=T LinDyn=F Incr=        1024 UseFst=F UseS4=T ISplat=2.
 Enter PrismC:  IPart=  2 JobTyp=22 DoJE=F Cont=F.
 PrismC:  IPart=     3 DynPar=T LinDyn=F Incr=        1024 UseFst=F UseS4=T ISplat=2.
 PrismC was handed    24349301 working-precision words and  1275 shell-pairs
 PrismC was handed    24349301 working-precision words and  1275 shell-pairs
 PrismC:  IPart=     2 DynPar=T LinDyn=F Incr=        1024 UseFst=F UseS4=T ISplat=2.
 PrismC was handed    24349301 working-precision words and  1275 shell-pairs
 IPart=  2 NShTot=      225193 NShNF=      225193 NShFF=           0 MinMC=       3
           NShCPU=      225193 NBCPU=        8073 AvBCPU=        27.9
           NShGPU=           0 NBGPU=           0 AvBGPU=         0.0
 IPart=  3 NShTot=      183130 NShNF=      183130 NShFF=           0 MinMC=       3
           NShCPU=      183130 NBCPU=        7266 AvBCPU=        25.2
           NShGPU=           0 NBGPU=           0 AvBGPU=         0.0
 IPart=  0 NShTot=      196186 NShNF=      196186 NShFF=           0 MinMC=       3
           NShCPU=      196186 NBCPU=        7505 AvBCPU=        26.1
           NShGPU=           0 NBGPU=           0 AvBGPU=         0.0
 IPart=  1 NShTot=      194270 NShNF=      194270 NShFF=           0 MinMC=       3
           NShCPU=      194270 NBCPU=        7119 AvBCPU=        27.3
           NShGPU=           0 NBGPU=           0 AvBGPU=         0.0
 CoulSu:  NxtVal=         861185 LenVP=       24349302 MinMC=       3.
 Polarizability after L703:
                1             2             3 
      1  0.107554D+02
      2  0.000000D+00  0.151861D+02
      3  0.000000D+00  0.000000D+00  0.198005D+02
 Dipole Derivatives after L703:
                 1             2             3             4             5 
      1  -0.389977D+00  0.000000D+00  0.000000D+00  0.223178D+00  0.000000D+00
      2   0.000000D+00 -0.536155D+00  0.000000D+00  0.000000D+00  0.890208D+00
      3   0.000000D+00  0.000000D+00 -0.116208D+01  0.000000D+00  0.000000D+00
                 6             7             8             9            10 
      1   0.000000D+00  0.833996D-01  0.000000D+00  0.000000D+00  0.833996D-01
      2   0.000000D+00  0.000000D+00 -0.177027D+00  0.710875D-01  0.000000D+00
      3   0.123351D+01  0.000000D+00  0.137686D+00 -0.357155D-01  0.000000D+00
                11            12 
      1   0.000000D+00  0.000000D+00
      2  -0.177027D+00 -0.710875D-01
      3  -0.137686D+00 -0.357155D-01
 Hessian after L703:
                1             2             3             4             5 
      1  0.206663D-01
      2  0.000000D+00  0.843224D-01
      3  0.000000D+00  0.000000D+00  0.108642D+01
      4 -0.688201D-01  0.000000D+00  0.000000D+00  0.214379D+00
      5  0.000000D+00 -0.120444D+00  0.000000D+00  0.000000D+00  0.655567D+00
      6  0.000000D+00  0.000000D+00 -0.990035D+00  0.000000D+00  0.000000D+00
      7  0.240769D-01  0.000000D+00  0.000000D+00 -0.727797D-01  0.000000D+00
      8  0.000000D+00  0.180608D-01  0.183042D-01  0.000000D+00 -0.267562D+00
      9  0.000000D+00  0.441368D-01 -0.481943D-01  0.000000D+00  0.897518D-01
     10  0.240769D-01  0.000000D+00  0.000000D+00 -0.727797D-01  0.000000D+00
     11  0.000000D+00  0.180608D-01 -0.183042D-01  0.000000D+00 -0.267562D+00
     12  0.000000D+00 -0.441368D-01 -0.481943D-01  0.000000D+00 -0.897518D-01
                6             7             8             9            10 
      6  0.121410D+01
      7  0.000000D+00  0.242184D-01
      8  0.882911D-01  0.000000D+00  0.270842D+00
      9 -0.112033D+00  0.000000D+00 -0.120242D+00  0.150055D+00
     10  0.000000D+00  0.244844D-01  0.000000D+00  0.000000D+00  0.242184D-01
     11 -0.882911D-01  0.000000D+00 -0.213407D-01 -0.136466D-01  0.000000D+00
     12 -0.112033D+00  0.000000D+00  0.136466D-01  0.101725D-01  0.000000D+00
               11            12 
     11  0.270842D+00
     12  0.120242D+00  0.150055D+00
 Leave Link  703 at Tue Jul  9 11:09:45 2024, MaxMem=    97648640 cpu:             122.9 elap:              30.3
 (Enter /cluster/software/Gaussian/g16_B.01/l716.exe)
 FrcOut:
 IF    =        44 IFX   =        56 IFXYZ =        68
 IFFX  =        80 IFFFX =       158 IFLen =        12
 IFFLen=        78 IFFFLn=         0 IEDerv=       158
 LEDerv=       629 IFroze=       957 ICStrt=     59150
 Dipole        = 1.70551150D-15-9.24656211D-16-1.04758347D+00
 DipoleDeriv   =-3.89977121D-01-1.57557823D-15 8.34821917D-16
                -1.63737181D-15-5.36154685D-01-7.05387406D-15
                 1.59513615D-15-2.26121916D-14-1.16207855D+00
                 2.23177868D-01-4.19268980D-15-4.49469621D-15
                -2.35682624D-15 8.90207968D-01 1.22984161D-14
                -8.05211629D-15 1.96745162D-14 1.23350964D+00
                 8.33996262D-02 1.61438437D-15-8.91356929D-16
                -3.58012462D-17-1.77026642D-01 1.37686485D-01
                 5.44058916D-16 7.10875035D-02-3.57155420D-02
                 8.33996262D-02 4.15388367D-15 4.55123122D-15
                 4.02999930D-15-1.77026642D-01-1.37686485D-01
                 5.91292122D-15-7.10875035D-02-3.57155420D-02
 Polarizability= 1.07553942D+01 4.38522641D-14 1.51860563D+01
                 2.05878712D-14-5.36237935D-14 1.98004811D+01
 PolarDeriv    =-2.43071990D-13 3.28484282D-13-7.22863757D-14
                 3.56354562D+00 1.48401482D-13-1.48485416D-13
                -2.51480054D-13-1.29510503D-13-5.70744261D-14
                -1.29265258D-13 2.56342834D+00-3.63361395D-13
                 3.44715188D+00 1.28680594D-13-2.80598732D+00
                -1.44438980D-13 6.37975101D-13 1.11111474D+01
                -9.90633491D-14-4.18459148D-12-2.29781175D-14
                -2.51935164D+00-4.88701938D-13 4.25937914D-13
                 1.10698691D-12 1.33395397D-14-1.52810227D-11
                 1.69031323D-13 4.77955433D+00-3.15475969D-12
                -2.37155551D+00-7.56926111D-14 9.78480288D+00
                -4.34552829D-13-5.80718658D-12-5.01063055D+00
                 6.25633801D-14 1.26739334D+00-2.92981905D-14
                -5.22096988D-01 2.44815146D-13 7.81503065D-14
                 9.80339091D-01 1.61308875D-14 6.76607421D+00
                 4.26252850D-14-3.67149133D+00 2.02644208D+00
                -5.37798189D-01-4.43502079D-14-3.48940778D+00
                 2.41318699D-13 2.61370630D+00-3.05025842D+00
                 2.82111090D-13-1.26739334D+00 1.24562684D-13
                -5.22096988D-01 9.54853102D-14-3.55602804D-13
                -9.80339091D-01 1.01309641D-13-6.76607421D+00
                -8.23913503D-14-3.67149133D+00-2.02644208D+00
                -5.37798189D-01-8.63777522D-15-3.48940778D+00
                 3.38942675D-13-2.61370630D+00-3.05025842D+00
 HyperPolar    =-3.87896170D-13 8.33074740D-13-1.15344795D-14
                 1.53755023D-12-7.74265988D+00 5.01353932D-14
                -4.44227032D+01-2.04788859D-13-2.52007076D-12
                -3.95810580D+01
 Quadrupole    = 8.54876134D-02 2.03427642D-01-2.88915256D-01
                -1.71420675D-14-6.42235537D-15-1.10361262D-14
 -------------------------------------------------------------------
 Center     Atomic                   Forces (Hartrees/Bohr)
 Number     Number              X              Y              Z
 -------------------------------------------------------------------
      1        8          -0.000000000   -0.000000000    0.007125791
      2        6          -0.000000000    0.000000000   -0.007467124
      3        1           0.000000000    0.000464896    0.000170666
      4        1           0.000000000   -0.000464896    0.000170666
 -------------------------------------------------------------------
 Cartesian Forces:  Max     0.007467124 RMS     0.002986432
 Force constants in Cartesian coordinates: 
                1             2             3             4             5 
      1  0.206663D-01
      2  0.000000D+00  0.843224D-01
      3  0.000000D+00  0.000000D+00  0.108642D+01
      4 -0.688201D-01  0.000000D+00  0.000000D+00  0.214379D+00
      5  0.000000D+00 -0.120444D+00  0.000000D+00  0.000000D+00  0.655567D+00
      6  0.000000D+00  0.000000D+00 -0.990035D+00  0.000000D+00  0.000000D+00
      7  0.240769D-01  0.000000D+00  0.000000D+00 -0.727797D-01  0.000000D+00
      8  0.000000D+00  0.180608D-01  0.183042D-01  0.000000D+00 -0.267562D+00
      9  0.000000D+00  0.441368D-01 -0.481943D-01  0.000000D+00  0.897518D-01
     10  0.240769D-01  0.000000D+00  0.000000D+00 -0.727797D-01  0.000000D+00
     11  0.000000D+00  0.180608D-01 -0.183042D-01  0.000000D+00 -0.267562D+00
     12  0.000000D+00 -0.441368D-01 -0.481943D-01  0.000000D+00 -0.897518D-01
                6             7             8             9            10 
      6  0.121410D+01
      7  0.000000D+00  0.242184D-01
      8  0.882911D-01  0.000000D+00  0.270842D+00
      9 -0.112033D+00  0.000000D+00 -0.120242D+00  0.150055D+00
     10  0.000000D+00  0.244844D-01  0.000000D+00  0.000000D+00  0.242184D-01
     11 -0.882911D-01  0.000000D+00 -0.213407D-01 -0.136466D-01  0.000000D+00
     12 -0.112033D+00  0.000000D+00  0.136466D-01  0.101725D-01  0.000000D+00
               11            12 
     11  0.270842D+00
     12  0.120242D+00  0.150055D+00
 Final forces over variables, Energy=-1.13922355D+02:
 -1.60880713D-07 1.78026753D-08 1.78026760D-08-3.41879592D-08
 -3.41879590D-08 6.83759182D-08 5.37191787D-16
 Leave Link  716 at Tue Jul  9 11:09:45 2024, MaxMem=    97648640 cpu:               0.4 elap:               0.0
 (Enter /cluster/software/Gaussian/g16_B.01/l106.exe)
 NDeriv=      6 NFrqRd=  0 NDerD0=      0 MskFDP=       0 MskDFD=       0 MskDF0=       0
 Re-enter D2Numr:  normal mode   4 step-down number 1
 Leave Link  106 at Tue Jul  9 11:09:45 2024, MaxMem=    97648640 cpu:               1.4 elap:               0.1
 (Enter /cluster/software/Gaussian/g16_B.01/l301.exe)
 Standard basis: CC-pVQZ (5D, 7F)
 Ernie: Thresh=  0.10000D-02 Tol=  0.10000D-05 Strict=F.
 Ernie:  6 primitive shells out of 90 were deleted.
   170 basis functions,   252 primitive gaussians,   210 cartesian basis functions
     8 alpha electrons        8 beta electrons
       nuclear repulsion energy        31.9127855926 Hartrees.
 IExCor=    0 DFT=F Ex=HF Corr=None ExCW=0 ScaHFX=  1.000000
 ScaDFX=  1.000000  1.000000  1.000000  1.000000 ScalE2=  1.000000  1.000000
 IRadAn=      5 IRanWt=     -1 IRanGd=            0 ICorTp=0 IEmpDi=  4
 NAtoms=    4 NActive=    4 NUniq=    4 SFac= 1.00D+00 NAtFMM=   60 NAOKFM=F Big=F
 Integral buffers will be    131072 words long.
 Raffenetti 1 integral format.
 Two-electron integral symmetry is turned off.
 Leave Link  301 at Tue Jul  9 11:09:46 2024, MaxMem=    97648640 cpu:               0.8 elap:               0.1
 (Enter /cluster/software/Gaussian/g16_B.01/l302.exe)
 NPDir=0 NMtPBC=     1 NCelOv=     1 NCel=       1 NClECP=     1 NCelD=      1
         NCelK=      1 NCelE2=     1 NClLst=     1 CellRange=     0.0.
 One-electron integrals computed using PRISM.
 PrsmSu:  requested number of processors reduced to:   4 ShMem   1 Linda.
 NBasis=   170 RedAO= T EigKep=  2.38D-04  NBF=   170
 NBsUse=   170 1.00D-06 EigRej= -1.00D+00 NBFU=   170
 Leave Link  302 at Tue Jul  9 11:09:46 2024, MaxMem=    97648640 cpu:               2.2 elap:               0.2
 (Enter /cluster/software/Gaussian/g16_B.01/l303.exe)
 DipDrv:  MaxL=1.
 Leave Link  303 at Tue Jul  9 11:09:46 2024, MaxMem=    97648640 cpu:               0.4 elap:               0.1
 (Enter /cluster/software/Gaussian/g16_B.01/l401.exe)
 Initial guess from the checkpoint file:  "inputFull_3q.chk"
 B after Tr=     0.000000    0.000000   -0.000405
         Rot=    1.000000   -0.000000   -0.000000    0.000000 Ang=   0.00 deg.
 Guess basis will be translated and rotated to current coordinates.
 JPrj=2 DoOrth=T DoCkMO=T.
 Leave Link  401 at Tue Jul  9 11:09:46 2024, MaxMem=    97648640 cpu:               1.5 elap:               0.1
 (Enter /cluster/software/Gaussian/g16_B.01/l502.exe)
 Two-electron integral symmetry not used.
 Closed shell SCF:
 Using DIIS extrapolation, IDIIS=  1040.
 NGot=    97648640 LenX=    97555748 LenY=    97511207
 Requested convergence on RMS density matrix=1.00D-08 within 128 cycles.
 Requested convergence on MAX density matrix=1.00D-06.
 Requested convergence on             energy=1.00D-06.
 No special actions if energy rises.
 Fock matrices will be formed incrementally for  20 cycles.

 Cycle   1  Pass 1  IDiag  1:
 FoFJK:  IHMeth= 1 ICntrl=       0 DoSepK=F KAlg= 0 I1Cent=           0 FoldK=F
 IRaf= 990000000 NMat=       1 IRICut=       1 DoRegI=T DoRafI=F ISym2E= 0 IDoP0=0 IntGTp=1.
 FoFCou: FMM=F IPFlag=           0 FMFlag=      100000 FMFlg1=           0
         NFxFlg=           0 DoJE=F BraDBF=F KetDBF=F FulRan=T
         wScrn=  0.000000 ICntrl=         0 IOpCl=  0 I1Cent=           0 NGrid=           0
         NMat0=    1 NMatS0=      1 NMatT0=    0 NMatD0=    1 NMtDS0=    0 NMtDT0=    0
 Symmetry not used in FoFCou.
 E= -113.922300066450    
 DIIS: error= 6.10D-04 at cycle   1 NSaved=   1.
 NSaved= 1 IEnMin= 1 EnMin= -113.922300066450     IErMin= 1 ErrMin= 6.10D-04
 ErrMax= 6.10D-04  0.00D+00 EMaxC= 1.00D-01 BMatC= 2.51D-05 BMatP= 2.51D-05
 IDIUse=3 WtCom= 9.94D-01 WtEn= 6.10D-03
 Coeff-Com:  0.100D+01
 Coeff-En:   0.100D+01
 Coeff:      0.100D+01
 Gap=     2.583 Goal=   None    Shift=    0.000
 RMSDP=1.96D-05 MaxDP=5.38D-04              OVMax= 1.26D-03

 Cycle   2  Pass 1  IDiag  1:
 RMSU=  1.95D-05    CP:  1.00D+00
 E= -113.922317331732     Delta-E=       -0.000017265282 Rises=F Damp=F
 DIIS: error= 1.66D-04 at cycle   2 NSaved=   2.
 NSaved= 2 IEnMin= 2 EnMin= -113.922317331732     IErMin= 2 ErrMin= 1.66D-04
 ErrMax= 1.66D-04  0.00D+00 EMaxC= 1.00D-01 BMatC= 1.91D-06 BMatP= 2.51D-05
 IDIUse=3 WtCom= 9.98D-01 WtEn= 1.66D-03
 Coeff-Com:  0.405D-01 0.960D+00
 Coeff-En:   0.000D+00 0.100D+01
 Coeff:      0.404D-01 0.960D+00
 Gap=     0.556 Goal=   None    Shift=    0.000
 RMSDP=4.74D-06 MaxDP=1.06D-04 DE=-1.73D-05 OVMax= 6.14D-04

 Cycle   3  Pass 1  IDiag  1:
 RMSU=  4.74D-06    CP:  1.00D+00  1.00D+00
 E= -113.922318499888     Delta-E=       -0.000001168155 Rises=F Damp=F
 DIIS: error= 9.44D-05 at cycle   3 NSaved=   3.
 NSaved= 3 IEnMin= 3 EnMin= -113.922318499888     IErMin= 3 ErrMin= 9.44D-05
 ErrMax= 9.44D-05  0.00D+00 EMaxC= 1.00D-01 BMatC= 7.51D-07 BMatP= 1.91D-06
 IDIUse=1 WtCom= 1.00D+00 WtEn= 0.00D+00
 Coeff-Com: -0.502D-01 0.377D+00 0.673D+00
 Coeff:     -0.502D-01 0.377D+00 0.673D+00
 Gap=     0.556 Goal=   None    Shift=    0.000
 RMSDP=2.54D-06 MaxDP=6.45D-05 DE=-1.17D-06 OVMax= 2.51D-04

 Cycle   4  Pass 1  IDiag  1:
 RMSU=  1.48D-06    CP:  1.00D+00  1.09D+00  7.51D-01
 E= -113.922319035965     Delta-E=       -0.000000536077 Rises=F Damp=F
 DIIS: error= 2.01D-05 at cycle   4 NSaved=   4.
 NSaved= 4 IEnMin= 4 EnMin= -113.922319035965     IErMin= 4 ErrMin= 2.01D-05
 ErrMax= 2.01D-05  0.00D+00 EMaxC= 1.00D-01 BMatC= 1.12D-08 BMatP= 7.51D-07
 IDIUse=1 WtCom= 1.00D+00 WtEn= 0.00D+00
 Coeff-Com:  0.266D-03-0.639D-01-0.197D-01 0.108D+01
 Coeff:      0.266D-03-0.639D-01-0.197D-01 0.108D+01
 Gap=     0.556 Goal=   None    Shift=    0.000
 RMSDP=6.99D-07 MaxDP=1.82D-05 DE=-5.36D-07 OVMax= 8.42D-05

 Cycle   5  Pass 1  IDiag  1:
 RMSU=  3.74D-07    CP:  1.00D+00  1.11D+00  8.20D-01  1.27D+00
 E= -113.922319056546     Delta-E=       -0.000000020581 Rises=F Damp=F
 DIIS: error= 3.55D-06 at cycle   5 NSaved=   5.
 NSaved= 5 IEnMin= 5 EnMin= -113.922319056546     IErMin= 5 ErrMin= 3.55D-06
 ErrMax= 3.55D-06  0.00D+00 EMaxC= 1.00D-01 BMatC= 7.68D-10 BMatP= 1.12D-08
 IDIUse=1 WtCom= 1.00D+00 WtEn= 0.00D+00
 Coeff-Com:  0.269D-02-0.279D-01-0.331D-01 0.538D-01 0.100D+01
 Coeff:      0.269D-02-0.279D-01-0.331D-01 0.538D-01 0.100D+01
 Gap=     0.556 Goal=   None    Shift=    0.000
 RMSDP=2.59D-07 MaxDP=6.83D-06 DE=-2.06D-08 OVMax= 2.25D-05

 Cycle   6  Pass 1  IDiag  1:
 RMSU=  1.20D-07    CP:  1.00D+00  1.11D+00  8.32D-01  1.40D+00  1.11D+00
 E= -113.922319058081     Delta-E=       -0.000000001536 Rises=F Damp=F
 DIIS: error= 1.17D-06 at cycle   6 NSaved=   6.
 NSaved= 6 IEnMin= 6 EnMin= -113.922319058081     IErMin= 6 ErrMin= 1.17D-06
 ErrMax= 1.17D-06  0.00D+00 EMaxC= 1.00D-01 BMatC= 3.48D-11 BMatP= 7.68D-10
 IDIUse=1 WtCom= 1.00D+00 WtEn= 0.00D+00
 Coeff-Com: -0.252D-04 0.307D-02 0.230D-02-0.648D-01-0.778D-02 0.107D+01
 Coeff:     -0.252D-04 0.307D-02 0.230D-02-0.648D-01-0.778D-02 0.107D+01
 Gap=     0.556 Goal=   None    Shift=    0.000
 RMSDP=7.26D-08 MaxDP=1.74D-06 DE=-1.54D-09 OVMax= 6.59D-06

 Cycle   7  Pass 1  IDiag  1:
 RMSU=  1.63D-08    CP:  1.00D+00  1.11D+00  8.36D-01  1.42D+00  1.20D+00
                    CP:  1.34D+00
 E= -113.922319058161     Delta-E=       -0.000000000079 Rises=F Damp=F
 DIIS: error= 1.15D-07 at cycle   7 NSaved=   7.
 NSaved= 7 IEnMin= 7 EnMin= -113.922319058161     IErMin= 7 ErrMin= 1.15D-07
 ErrMax= 1.15D-07  0.00D+00 EMaxC= 1.00D-01 BMatC= 8.56D-13 BMatP= 3.48D-11
 IDIUse=1 WtCom= 1.00D+00 WtEn= 0.00D+00
 Coeff-Com: -0.116D-03 0.902D-03 0.114D-02 0.458D-02-0.370D-01-0.117D+00
 Coeff-Com:  0.115D+01
 Coeff:     -0.116D-03 0.902D-03 0.114D-02 0.458D-02-0.370D-01-0.117D+00
 Coeff:      0.115D+01
 Gap=     0.556 Goal=   None    Shift=    0.000
 RMSDP=1.73D-08 MaxDP=6.01D-07 DE=-7.92D-11 OVMax= 9.32D-07

 Cycle   8  Pass 1  IDiag  1:
 RMSU=  2.39D-09    CP:  1.00D+00  1.11D+00  8.36D-01  1.43D+00  1.21D+00
                    CP:  1.45D+00  1.36D+00
 E= -113.922319058163     Delta-E=       -0.000000000002 Rises=F Damp=F
 DIIS: error= 1.41D-08 at cycle   8 NSaved=   8.
 NSaved= 8 IEnMin= 8 EnMin= -113.922319058163     IErMin= 8 ErrMin= 1.41D-08
 ErrMax= 1.41D-08  0.00D+00 EMaxC= 1.00D-01 BMatC= 1.70D-14 BMatP= 8.56D-13
 IDIUse=1 WtCom= 1.00D+00 WtEn= 0.00D+00
 Coeff-Com:  0.190D-04-0.203D-03-0.255D-03 0.264D-03 0.646D-02 0.652D-02
 Coeff-Com: -0.238D+00 0.123D+01
 Coeff:      0.190D-04-0.203D-03-0.255D-03 0.264D-03 0.646D-02 0.652D-02
 Coeff:     -0.238D+00 0.123D+01
 Gap=     0.556 Goal=   None    Shift=    0.000
 RMSDP=2.27D-09 MaxDP=6.43D-08 DE=-2.10D-12 OVMax= 9.30D-08

 SCF Done:  E(RHF) =  -113.922319058     A.U. after    8 cycles
            NFock=  8  Conv=0.23D-08     -V/T= 2.0002
 KE= 1.139016921281D+02 PE=-3.324784506227D+02 EE= 7.274165384375D+01
 Leave Link  502 at Tue Jul  9 11:09:53 2024, MaxMem=    97648640 cpu:             106.1 elap:               6.7
 (Enter /cluster/software/Gaussian/g16_B.01/l801.exe)
 Range of M.O.s used for correlation:     1   170
 NBasis=   170 NAE=     8 NBE=     8 NFC=     0 NFV=     0
 NROrb=    170 NOA=     8 NOB=     8 NVA=   162 NVB=   162

 **** Warning!!: The largest alpha MO coefficient is  0.16524468D+02

 Leave Link  801 at Tue Jul  9 11:09:53 2024, MaxMem=    97648640 cpu:               0.3 elap:               0.0
 (Enter /cluster/software/Gaussian/g16_B.01/l1002.exe)
 Minotr:  Closed shell wavefunction.
          Direct CPHF calculation.
          Differentiating once with respect to electric field.
                with respect to dipole field.
          Electric field/nuclear overlap derivatives assumed to be zero.
          Requested convergence is 1.0D-08 RMS, and 1.0D-07 maximum.
          Secondary convergence is 1.0D-12 RMS, and 1.0D-12 maximum.
          NewPWx=F KeepS1=T KeepF1=T KeepIn=T MapXYZ=F SortEE=F KeepMc=T.
 Two-electron integral symmetry not used.
          MDV=      97648640 using IRadAn=       4.
          Solving linear equations simultaneously, MaxMat=     384.
          There are     3 degrees of freedom in the 1st order CPHF.  IDoFFX=0 NUNeed=     3.
      3 vectors produced by pass  0 Test12= 4.32D-14 3.33D-08 XBig12= 5.17D+00 1.48D+00.
 AX will form     3 AO Fock derivatives at one time.
 FoFJK:  IHMeth= 1 ICntrl=       0 DoSepK=F KAlg= 0 I1Cent=           0 FoldK=F
 IRaf= 990000000 NMat=       3 IRICut=       1 DoRegI=T DoRafI=F ISym2E= 0 IDoP0=0 IntGTp=1.
 FoFCou: FMM=F IPFlag=           0 FMFlag=      100000 FMFlg1=           0
         NFxFlg=           0 DoJE=F BraDBF=F KetDBF=F FulRan=T
         wScrn=  0.000000 ICntrl=         0 IOpCl=  0 I1Cent=           0 NGrid=           0
         NMat0=    3 NMatS0=      3 NMatT0=    0 NMatD0=    3 NMtDS0=    0 NMtDT0=    0
 Symmetry not used in FoFCou.
      3 vectors produced by pass  1 Test12= 4.32D-14 3.33D-08 XBig12= 6.95D-01 2.28D-01.
      3 vectors produced by pass  2 Test12= 4.32D-14 3.33D-08 XBig12= 6.15D-02 9.39D-02.
      3 vectors produced by pass  3 Test12= 4.32D-14 3.33D-08 XBig12= 2.31D-03 1.89D-02.
      3 vectors produced by pass  4 Test12= 4.32D-14 3.33D-08 XBig12= 8.35D-05 3.62D-03.
      3 vectors produced by pass  5 Test12= 4.32D-14 3.33D-08 XBig12= 8.39D-06 1.06D-03.
      3 vectors produced by pass  6 Test12= 4.32D-14 3.33D-08 XBig12= 1.04D-07 9.59D-05.
      3 vectors produced by pass  7 Test12= 4.32D-14 3.33D-08 XBig12= 1.34D-09 1.16D-05.
      3 vectors produced by pass  8 Test12= 4.32D-14 3.33D-08 XBig12= 1.44D-11 1.02D-06.
      1 vectors produced by pass  9 Test12= 4.32D-14 3.33D-08 XBig12= 3.63D-13 2.15D-07.
 InvSVY:  IOpt=1 It=  1 EMax= 2.82D-16
 Solved reduced A of dimension    28 with     3 vectors.
 End of Minotr F.D. properties file   721 does not exist.
 End of Minotr F.D. properties file   722 does not exist.
 End of Minotr F.D. properties file   788 does not exist.
 Leave Link 1002 at Tue Jul  9 11:10:02 2024, MaxMem=    97648640 cpu:             148.0 elap:               9.3
 (Enter /cluster/software/Gaussian/g16_B.01/l1101.exe)
 Using compressed storage, NAtomX=     4.
 Will process      5 centers per pass.
 PrsmSu:  requested number of processors reduced to:   2 ShMem   1 Linda.
 PrsmSu:  requested number of processors reduced to:   9 ShMem   1 Linda.
 Leave Link 1101 at Tue Jul  9 11:10:02 2024, MaxMem=    97648640 cpu:               1.5 elap:               0.2
 (Enter /cluster/software/Gaussian/g16_B.01/l1102.exe)
 Symmetrizing basis deriv contribution to polar:
 IMax=3 JMax=2 DiffMx= 0.00D+00
 Leave Link 1102 at Tue Jul  9 11:10:02 2024, MaxMem=    97648640 cpu:               0.4 elap:               0.1
 (Enter /cluster/software/Gaussian/g16_B.01/l1110.exe)
 Forming Gx(P) for the SCF density, NAtomX=     4.
 Integral derivatives from FoFJK, PRISM(SPDF).
 Do as many integral derivatives as possible in FoFJK.
 G2DrvN: MDV=      97648192.
 G2DrvN: will do     3 centers at a time, making    2 passes.
 Estimated number of processors is:   10
 G2DrvN:  IPasSy=1 do centers    0 through    2.
 PxScal for G2LodP:  IOpCl= 0 ISclPx=1 IMOff=     1 NMtTot=     4 NTT=   14535 ScalPx= 2.49D+00
 Calling FoFCou, ICntrl=  3107 FMM=F I1Cent=   0 AccDes= 0.00D+00.
 FoFJK:  IHMeth= 1 ICntrl=    3107 DoSepK=F KAlg= 0 I1Cent=           0 FoldK=F
 IRaf=         0 NMat=       1 IRICut=       1 DoRegI=T DoRafI=F ISym2E= 0 IDoP0=0 IntGTp=1.
 FoFCou: FMM=F IPFlag=           0 FMFlag=      100000 FMFlg1=           0
         NFxFlg=           0 DoJE=F BraDBF=F KetDBF=F FulRan=T
         wScrn=  0.000000 ICntrl=      3107 IOpCl=  0 I1Cent=           0 NGrid=           0
         NMat0=    1 NMatS0=      1 NMatT0=    0 NMatD0=    4 NMtDS0=    3 NMtDT0=    0
 Symmetry not used in FoFCou.
 CoulSu:  requested number of processors reduced to:  10 ShMem   1 Linda.
 G2DrvN:  IPasSy=1 do centers    3 through    4.
 PxScal for G2LodP:  IOpCl= 0 ISclPx=1 IMOff=     1 NMtTot=     4 NTT=   14535 ScalPx= 2.49D+00
 Calling FoFCou, ICntrl=  3107 FMM=F I1Cent=   0 AccDes= 0.00D+00.
 CoulSu:  requested number of processors reduced to:  10 ShMem   1 Linda.
 End of G2Drv F.D. properties file   721 does not exist.
 End of G2Drv F.D. properties file   722 does not exist.
 End of G2Drv F.D. properties file   788 does not exist.
 Leave Link 1110 at Tue Jul  9 11:10:13 2024, MaxMem=    97648640 cpu:             112.3 elap:              11.1
 (Enter /cluster/software/Gaussian/g16_B.01/l1002.exe)
 Minotr:  Closed shell wavefunction.
          IDoAtm=1111
          Direct CPHF calculation.
          Differentiating once with respect to electric field.
                with respect to dipole field.
          Differentiating once with respect to nuclear coordinates.
          Requested convergence is 1.0D-08 RMS, and 1.0D-07 maximum.
          Secondary convergence is 1.0D-12 RMS, and 1.0D-12 maximum.
          NewPWx=T KeepS1=F KeepF1=F KeepIn=T MapXYZ=F SortEE=F KeepMc=T.
 Two-electron integral symmetry not used.
          MDV=      97648640 using IRadAn=       4.
          Solving linear equations simultaneously, MaxMat=     384.
 FoF2E skips out because all densities are zero.
 FoFJK:  IHMeth= 1 ICntrl=       0 DoSepK=F KAlg= 0 I1Cent=           0 FoldK=F
 IRaf= 990000000 NMat=       4 IRICut=       1 DoRegI=T DoRafI=F ISym2E= 0 IDoP0=0 IntGTp=1.
 FoFCou: FMM=F IPFlag=           0 FMFlag=      100000 FMFlg1=           0
         NFxFlg=           0 DoJE=F BraDBF=F KetDBF=F FulRan=T
         wScrn=  0.000000 ICntrl=         0 IOpCl=  0 I1Cent=           0 NGrid=           0
         NMat0=    4 NMatS0=      4 NMatT0=    0 NMatD0=    4 NMtDS0=    0 NMtDT0=    0
 Symmetry not used in FoFCou.
          There are    15 degrees of freedom in the 1st order CPHF.  IDoFFX=5 NUNeed=    15.
 Will reuse    3 saved solutions.
      9 vectors produced by pass  0 Test12= 8.64D-15 6.67D-09 XBig12= 6.17D-02 9.02D-02.
 AX will form     3 AO Fock derivatives at one time.
      9 vectors produced by pass  1 Test12= 8.64D-15 6.67D-09 XBig12= 1.04D-02 4.74D-02.
      9 vectors produced by pass  2 Test12= 8.64D-15 6.67D-09 XBig12= 2.28D-04 5.75D-03.
      9 vectors produced by pass  3 Test12= 8.64D-15 6.67D-09 XBig12= 2.28D-06 4.66D-04.
      9 vectors produced by pass  4 Test12= 8.64D-15 6.67D-09 XBig12= 2.62D-08 5.85D-05.
      9 vectors produced by pass  5 Test12= 8.64D-15 6.67D-09 XBig12= 2.36D-10 5.53D-06.
      9 vectors produced by pass  6 Test12= 8.64D-15 6.67D-09 XBig12= 3.06D-12 6.73D-07.
      5 vectors produced by pass  7 Test12= 8.64D-15 6.67D-09 XBig12= 2.05D-14 3.06D-08.
 InvSVY:  IOpt=1 It=  1 EMax= 6.66D-16
 Solved reduced A of dimension    68 with     9 vectors.
 FullF1:  Do perturbations      1 to       3.
 Isotropic polarizability for W=    0.000000       15.38 Bohr**3.
 FullF1:  Do perturbations      1 to       3.
 FullF1:  Do perturbations      4 to       6.
 End of Minotr F.D. properties file   721 does not exist.
 End of Minotr F.D. properties file   722 does not exist.
 End of Minotr F.D. properties file   788 does not exist.
 Leave Link 1002 at Tue Jul  9 11:10:43 2024, MaxMem=    97648640 cpu:             467.1 elap:              29.3
 (Enter /cluster/software/Gaussian/g16_B.01/l601.exe)
 Copying SCF densities to generalized density rwf, IOpCl= 0 IROHF=0.

 **********************************************************************

            Population analysis using the SCF Density.

 **********************************************************************

 Alpha  occ. eigenvalues --  -20.57267 -11.33336  -1.42494  -0.86600  -0.70119
 Alpha  occ. eigenvalues --   -0.66003  -0.54959  -0.43894
 Alpha virt. eigenvalues --    0.11683   0.12229   0.17623   0.21804   0.33668
 Alpha virt. eigenvalues --    0.34430   0.34515   0.46641   0.47829   0.54020
 Alpha virt. eigenvalues --    0.54088   0.62982   0.65242   0.67610   0.74420
 Alpha virt. eigenvalues --    0.74938   0.81598   0.86971   0.90415   0.95686
 Alpha virt. eigenvalues --    1.02614   1.07918   1.11841   1.14029   1.21699
 Alpha virt. eigenvalues --    1.34103   1.46419   1.47161   1.50784   1.54745
 Alpha virt. eigenvalues --    1.63123   1.63167   1.73416   1.78462   1.87697
 Alpha virt. eigenvalues --    1.92620   2.02262   2.04143   2.04734   2.07544
 Alpha virt. eigenvalues --    2.10649   2.13890   2.29254   2.36180   2.37659
 Alpha virt. eigenvalues --    2.37999   2.47333   2.57954   2.61696   2.66008
 Alpha virt. eigenvalues --    2.66023   2.78577   2.80932   2.86841   2.90042
 Alpha virt. eigenvalues --    3.09742   3.09806   3.19740   3.21390   3.42599
 Alpha virt. eigenvalues --    3.48472   3.56975   3.62296   3.67306   3.70459
 Alpha virt. eigenvalues --    3.71723   3.75015   3.88835   4.04921   4.05081
 Alpha virt. eigenvalues --    4.13044   4.33279   4.38040   4.39949   4.57676
 Alpha virt. eigenvalues --    4.61839   4.70434   4.73113   5.05662   5.07830
 Alpha virt. eigenvalues --    5.37838   5.42149   5.51914   5.53597   5.67180
 Alpha virt. eigenvalues --    5.72772   5.84472   6.01384   6.03665   6.11496
 Alpha virt. eigenvalues --    6.20208   6.25386   6.26046   6.27597   6.33463
 Alpha virt. eigenvalues --    6.34760   6.40210   6.48189   6.62762   6.73122
 Alpha virt. eigenvalues --    6.76076   6.77124   6.91412   7.00851   7.20530
 Alpha virt. eigenvalues --    7.44353   7.57449   7.71941   7.71948   7.73993
 Alpha virt. eigenvalues --    7.80823   7.84666   7.86279   7.96468   8.04912
 Alpha virt. eigenvalues --    8.04940   8.27537   8.30231   8.46362   8.49724
 Alpha virt. eigenvalues --    8.52912   8.57297   8.76390   8.87131   8.87766
 Alpha virt. eigenvalues --    8.96078   9.29068   9.35007   9.36100   9.43515
 Alpha virt. eigenvalues --    9.57881   9.65753   9.90330  10.11463  10.24218
 Alpha virt. eigenvalues --   10.26947  10.35122  10.57429  10.63311  10.69361
 Alpha virt. eigenvalues --   10.73909  10.94671  11.09391  11.25256  11.41266
 Alpha virt. eigenvalues --   11.59775  11.60798  11.62112  11.83014  11.99814
 Alpha virt. eigenvalues --   12.23151  12.37384  12.54694  12.76386  12.91334
 Alpha virt. eigenvalues --   12.96183  13.37082  13.93185  14.46347  14.67149
 Alpha virt. eigenvalues --   25.87795  42.81368
          Condensed to atoms (all electrons):
               1          2          3          4
     1  O    7.841116   0.683902  -0.080479  -0.080479
     2  C    0.683902   4.198551   0.393633   0.393633
     3  H   -0.080479   0.393633   0.816917  -0.146960
     4  H   -0.080479   0.393633  -0.146960   0.816917
 Mulliken charges:
               1
     1  O   -0.364060
     2  C    0.330280
     3  H    0.016890
     4  H    0.016890
 Sum of Mulliken charges =  -0.00000
 Mulliken charges with hydrogens summed into heavy atoms:
               1
     1  O   -0.364060
     2  C    0.364060
 APT charges:
               1
     1  O   -0.696942
     2  C    0.782127
     3  H   -0.042592
     4  H   -0.042592
 Sum of APT charges =  -0.00000
 APT charges with hydrogens summed into heavy atoms:
               1
     1  O   -0.696942
     2  C    0.696942
 Electronic spatial extent (au):  <R**2>=             59.0959
 Charge=             -0.0000 electrons
 Dipole moment (field-independent basis, Debye):
    X=              0.0000    Y=             -0.0000    Z=             -2.6696  Tot=              2.6696
 Quadrupole moment (field-independent basis, Debye-Ang):
   XX=            -11.6095   YY=            -11.4167   ZZ=            -12.1007
   XY=             -0.0000   XZ=             -0.0000   YZ=              0.0000
 Traceless Quadrupole moment (field-independent basis, Debye-Ang):
   XX=              0.0995   YY=              0.2923   ZZ=             -0.3917
   XY=             -0.0000   XZ=             -0.0000   YZ=              0.0000
 Octapole moment (field-independent basis, Debye-Ang**2):
  XXX=              0.0000  YYY=             -0.0000  ZZZ=              0.3061  XYY=              0.0000
  XXY=             -0.0000  XXZ=              0.4796  XZZ=              0.0000  YZZ=             -0.0000
  YYZ=             -0.5865  XYZ=             -0.0000
 Hexadecapole moment (field-independent basis, Debye-Ang**3):
 XXXX=            -10.1142 YYYY=            -17.4724 ZZZZ=            -43.6003 XXXY=             -0.0000
 XXXZ=             -0.0000 YYYX=             -0.0000 YYYZ=              0.0000 ZZZX=             -0.0000
 ZZZY=              0.0000 XXYY=             -4.9545 XXZZ=             -8.8879 YYZZ=             -9.7290
 XXYZ=              0.0000 YYXZ=             -0.0000 ZZXY=             -0.0000
 N-N= 3.191278559264D+01 E-N=-3.324784506792D+02  KE= 1.139016921281D+02
  Exact polarizability:  10.806   0.000  15.383   0.000  -0.000  19.939
 Approx polarizability:  10.464   0.000  12.518   0.000  -0.000  17.415
 No NMR shielding tensors so no spin-rotation constants.
 Leave Link  601 at Tue Jul  9 11:10:43 2024, MaxMem=    97648640 cpu:               2.6 elap:               0.2
 (Enter /cluster/software/Gaussian/g16_B.01/l701.exe)
 SCFChk:  SCF convergence  2.27D-09 required  1.00D-08
 ... and contract with generalized density number  0.
 Compute integral second derivatives.
 Entering OneElI...
 Calculate overlap and kinetic energy integrals
    NBasis = 210  MinDer = 2  MaxDer = 2
 Requested accuracy = 0.1000D-12
 PrsmSu:  requested number of processors reduced to:   1 ShMem   1 Linda.
 PrmmSu-InSpLW:  IPartL=    0 NPrtUS=    1 NPrtUL=    1 DoSpLW=F IThBeg=    0 IThEnd=    0 NThAct=    1.
 PrSmSu:  IncTry=   512 NBBP=           1275 NTPThr=   100 NPartT=    1 Incr=          12 LDynOK=F GPUOK=F.
 PrsmSu:  NPrtUS=   1 ThrOK=F IAlg=2 LenDen=           0 ISkipM=0 DoSpLW=F IThBeg=    0 IThEnd=    0.
 Prism:   IPart=     0 DynPar=F LinDyn=F Incr=          12.
 PRISM was handed    97371836 working-precision words and  1275 shell-pairs
 IPart=  0 NShTot=        1275 NBatch=          77 AvBLen=        16.6
 PrSmSu:  NxtVal=             13.
 Entering OneElI...
 Calculate potential energy integrals
    NBasis = 210  MinDer = 2  MaxDer = 2
 Requested accuracy = 0.1000D-12
 PrsmSu:  requested number of processors reduced to:   4 ShMem   1 Linda.
 PrmmSu-InSpLW:  IPartL=    0 NPrtUS=    4 NPrtUL=    1 DoSpLW=F IThBeg=    0 IThEnd=    3 NThAct=    4.
 PrSmSu:  IncTry=   512 NBBP=           5092 NTPThr=   100 NPartT=    4 Incr=          12 LDynOK=F GPUOK=F.
 PrsmSu:  NPrtUS=   4 ThrOK=T IAlg=2 LenDen=           0 ISkipM=0 DoSpLW=F IThBeg=    0 IThEnd=    3.
 Prism:   IPart=     0 DynPar=F LinDyn=F Incr=          12.
 PRISM was handed    24334029 working-precision words and  1273 shell-pairs
 PRISM was handed    24334029 working-precision words and  1273 shell-pairs
 PRISM was handed    24334029 working-precision words and  1273 shell-pairs
 PRISM was handed    24334029 working-precision words and  1273 shell-pairs
 IPart=  0 NShTot=        1332 NBatch=         333 AvBLen=         4.0
 IPart=  2 NShTot=        1236 NBatch=         309 AvBLen=         4.0
 IPart=  3 NShTot=        1224 NBatch=         306 AvBLen=         4.0
 IPart=  1 NShTot=        1300 NBatch=         325 AvBLen=         4.0
 PrSmSu:  NxtVal=             49.
 Polarizability after L701:
                1             2             3 
      1  0.108065D+02
      2  0.000000D+00  0.153825D+02
      3  0.000000D+00  0.000000D+00  0.199392D+02
 Dipole Derivatives after L701:
                 1             2             3             4             5 
      1  -0.389241D+00  0.000000D+00  0.000000D+00  0.220933D+00  0.000000D+00
      2   0.000000D+00 -0.537071D+00  0.000000D+00  0.000000D+00  0.891852D+00
      3   0.000000D+00  0.000000D+00 -0.116452D+01  0.000000D+00  0.000000D+00
                 6             7             8             9            10 
      1   0.000000D+00  0.841537D-01  0.000000D+00  0.000000D+00  0.841537D-01
      2   0.000000D+00  0.000000D+00 -0.177390D+00  0.702814D-01  0.000000D+00
      3   0.123360D+01  0.000000D+00  0.137543D+00 -0.345402D-01  0.000000D+00
                11            12 
      1   0.000000D+00  0.000000D+00
      2  -0.177390D+00 -0.702814D-01
      3  -0.137543D+00 -0.345402D-01
 Hessian after L701:
                1             2             3             4             5 
      1  0.130977D+02
      2  0.000000D+00  0.106322D+02
      3  0.000000D+00  0.000000D+00 -0.881868D+00
      4 -0.132324D+02  0.000000D+00  0.000000D+00  0.179928D+02
      5  0.000000D+00 -0.117402D+02  0.000000D+00  0.000000D+00  0.142334D+02
      6  0.000000D+00  0.000000D+00  0.139250D+01  0.000000D+00  0.000000D+00
      7  0.673678D-01  0.000000D+00  0.000000D+00 -0.238019D+01  0.000000D+00
      8  0.000000D+00  0.553981D+00 -0.270459D+00  0.000000D+00 -0.124660D+01
      9  0.000000D+00 -0.309848D+00 -0.255315D+00  0.000000D+00 -0.906372D+00
     10  0.673678D-01  0.000000D+00  0.000000D+00 -0.238019D+01  0.000000D+00
     11  0.000000D+00  0.553981D+00  0.270459D+00  0.000000D+00 -0.124660D+01
     12  0.000000D+00  0.309848D+00 -0.255315D+00  0.000000D+00  0.906372D+00
                6             7             8             9            10 
      6  0.235998D+01
      7  0.000000D+00  0.203442D+01
      8 -0.801129D+00  0.000000D+00  0.122802D+01
      9 -0.187624D+01  0.000000D+00  0.114390D+01  0.182392D+01
     10  0.000000D+00  0.278401D+00  0.000000D+00  0.000000D+00  0.203442D+01
     11  0.801129D+00  0.000000D+00 -0.535405D+00  0.723160D-01  0.000000D+00
     12 -0.187624D+01  0.000000D+00 -0.723160D-01  0.307636D+00  0.000000D+00
               11            12 
     11  0.122802D+01
     12 -0.114390D+01  0.182392D+01
 Leave Link  701 at Tue Jul  9 11:10:43 2024, MaxMem=    97648640 cpu:               0.9 elap:               0.3
 (Enter /cluster/software/Gaussian/g16_B.01/l702.exe)
 L702 exits ... SP integral derivatives will be done elsewhere.
 Leave Link  702 at Tue Jul  9 11:10:43 2024, MaxMem=    97648640 cpu:               0.3 elap:               0.0
 (Enter /cluster/software/Gaussian/g16_B.01/l703.exe)
 Integral derivatives from FoFJK, PRISM(SPDF).
 Compute integral second derivatives, UseDBF=F ICtDFT=           0.
 ICntrl=    100127.
 Calling FoFJK, ICntrl=    100127 FMM=F ISym2X=0 I1Cent= 0 IOpClX= 0 NMat=1 NMatS=1 NMatT=0.
 FoFJK:  IHMeth= 1 ICntrl=  100127 DoSepK=F KAlg= 0 I1Cent=           0 FoldK=F
 IRaf=         0 NMat=       1 IRICut=       1 DoRegI=T DoRafI=F ISym2E= 0 IDoP0=0 IntGTp=1.
 FoFCou: FMM=F IPFlag=           0 FMFlag=      100000 FMFlg1=         800
         NFxFlg=           0 DoJE=F BraDBF=F KetDBF=F FulRan=T
         wScrn=  0.000000 ICntrl=    100127 IOpCl=  0 I1Cent=           0 NGrid=           0
         NMat0=    1 NMatS0=      1 NMatT0=    0 NMatD0=    1 NMtDS0=    0 NMtDT0=    0
 Symmetry not used in FoFCou.
 FoFCou:  KetSym=F NOpSet=  1 NOpAb=1 NOp=  1.
 FoFCou:  CnvScl= 1.00D+00 Thresh= 1.00D-12 IAcrcy=      10.
 PrismS was handed    97482780 working-precision words and  1275 shell-pairs
 FoFCou: LinMIO=F DoNuc=F BraDBF=F KetDBF=F HaveP=T PDBF=F HaveZ=T HaveW=F
         NIJTC =      15 NIJTAt=       0 NIJTCD=       0 NIJTT =      15
         IJTBeg=       1 IJTEnd=      15 KLTBeg=       1 KLTEnd=      15
         IPTBeg=       1 IPTEnd=      15 IPTBCv=       1 IPTECv=      15
         IZTBeg=       1 IZTEnd=      15 IZTBCv=       1 IZTECv=      15
         IWTBeg=      16 IWTEnd=      15 IWTBCv=      16 IWTECv=      15
         INTBeg=       1 INTEnd=       0 IFTBCv=       1 IFTECv=      15
 NCel replicated for PrismC:     1
 CoulSu:  requested number of processors reduced to:   4 ShMem   1 Linda.
 CoulSu-InSpLW:  IPartL=    0 NPrtUS=    4 NPrtUL=    1 DoSpLW=F IThBeg=    0 IThEnd=    3 NThAct=    4.
 CoulSu:  IncTry=  1024 NBBP=         813450 NTPThr=   100 NPartT=    4 Incr=        1024 LDynOK=F GPUOK=F.
 CoulSu:  NPrtUS=   4 ThrOK=T IAlg=2 LenDen=           0 LWGrdD=           0 DoCopy=F ISkipM=0
          DoSpLW=F IThBeg=    0 IThEnd=    3.
 Enter PrismC:  IPart=  0 JobTyp=22 DoJE=F Cont=F.
 PrismC:  IPart=     0 DynPar=T LinDyn=F Incr=        1024 UseFst=F UseS4=T ISplat=2.
 PrismC was handed    24349301 working-precision words and  1275 shell-pairs
 Enter PrismC:  IPart=  1 JobTyp=22 DoJE=F Cont=F.
 Enter PrismC:  IPart=  2 JobTyp=22 DoJE=F Cont=F.
 Enter PrismC:  IPart=  3 JobTyp=22 DoJE=F Cont=F.
 PrismC:  IPart=     1 DynPar=T LinDyn=F Incr=        1024 UseFst=F UseS4=T ISplat=2.
 PrismC was handed    24349301 working-precision words and  1275 shell-pairs
 PrismC:  IPart=     2 DynPar=T LinDyn=F Incr=        1024 UseFst=F UseS4=T ISplat=2.
 PrismC was handed    24349301 working-precision words and  1275 shell-pairs
 PrismC:  IPart=     3 DynPar=T LinDyn=F Incr=        1024 UseFst=F UseS4=T ISplat=2.
 PrismC was handed    24349301 working-precision words and  1275 shell-pairs
 IPart=  3 NShTot=      223844 NShNF=      223844 NShFF=           0 MinMC=       3
           NShCPU=      223844 NBCPU=        8190 AvBCPU=        27.3
           NShGPU=           0 NBGPU=           0 AvBGPU=         0.0
 IPart=  2 NShTot=      189331 NShNF=      189331 NShFF=           0 MinMC=       3
           NShCPU=      189331 NBCPU=        7084 AvBCPU=        26.7
           NShGPU=           0 NBGPU=           0 AvBGPU=         0.0
 IPart=  1 NShTot=      194659 NShNF=      194659 NShFF=           0 MinMC=       3
           NShCPU=      194659 NBCPU=        7238 AvBCPU=        26.9
           NShGPU=           0 NBGPU=           0 AvBGPU=         0.0
 IPart=  0 NShTot=      190320 NShNF=      190320 NShFF=           0 MinMC=       3
           NShCPU=      190320 NBCPU=        7416 AvBCPU=        25.7
           NShGPU=           0 NBGPU=           0 AvBGPU=         0.0
 CoulSu:  NxtVal=         861185 LenVP=       24349302 MinMC=       3.
 Polarizability after L703:
                1             2             3 
      1  0.108065D+02
      2  0.000000D+00  0.153825D+02
      3  0.000000D+00  0.000000D+00  0.199392D+02
 Dipole Derivatives after L703:
                 1             2             3             4             5 
      1  -0.389241D+00  0.000000D+00  0.000000D+00  0.220933D+00  0.000000D+00
      2   0.000000D+00 -0.537071D+00  0.000000D+00  0.000000D+00  0.891852D+00
      3   0.000000D+00  0.000000D+00 -0.116452D+01  0.000000D+00  0.000000D+00
                 6             7             8             9            10 
      1   0.000000D+00  0.841537D-01  0.000000D+00  0.000000D+00  0.841537D-01
      2   0.000000D+00  0.000000D+00 -0.177390D+00  0.702814D-01  0.000000D+00
      3   0.123360D+01  0.000000D+00  0.137543D+00 -0.345402D-01  0.000000D+00
                11            12 
      1   0.000000D+00  0.000000D+00
      2  -0.177390D+00 -0.702814D-01
      3  -0.137543D+00 -0.345402D-01
 Hessian after L703:
                1             2             3             4             5 
      1  0.235181D-01
      2  0.000000D+00  0.866583D-01
      3  0.000000D+00  0.000000D+00  0.106317D+01
      4 -0.710042D-01  0.000000D+00  0.000000D+00  0.218494D+00
      5  0.000000D+00 -0.121999D+00  0.000000D+00  0.000000D+00  0.639249D+00
      6  0.000000D+00  0.000000D+00 -0.967792D+00  0.000000D+00  0.000000D+00
      7  0.237431D-01  0.000000D+00  0.000000D+00 -0.737449D-01  0.000000D+00
      8  0.000000D+00  0.176702D-01  0.182922D-01  0.000000D+00 -0.258625D+00
      9  0.000000D+00  0.436025D-01 -0.476875D-01  0.000000D+00  0.834123D-01
     10  0.237431D-01  0.000000D+00  0.000000D+00 -0.737449D-01  0.000000D+00
     11  0.000000D+00  0.176702D-01 -0.182922D-01  0.000000D+00 -0.258625D+00
     12  0.000000D+00 -0.436025D-01 -0.476875D-01  0.000000D+00 -0.834123D-01
                6             7             8             9            10 
      6  0.118550D+01
      7  0.000000D+00  0.261390D-01
      8  0.820089D-01  0.000000D+00  0.261616D+00
      9 -0.108852D+00  0.000000D+00 -0.113658D+00  0.146593D+00
     10  0.000000D+00  0.238629D-01  0.000000D+00  0.000000D+00  0.261390D-01
     11 -0.820089D-01  0.000000D+00 -0.206614D-01 -0.133568D-01  0.000000D+00
     12 -0.108852D+00  0.000000D+00  0.133568D-01  0.994672D-02  0.000000D+00
               11            12 
     11  0.261616D+00
     12  0.113658D+00  0.146593D+00
 Leave Link  703 at Tue Jul  9 11:11:12 2024, MaxMem=    97648640 cpu:             118.2 elap:              29.2
 (Enter /cluster/software/Gaussian/g16_B.01/l716.exe)
 FrcOut:
 IF    =        44 IFX   =        56 IFXYZ =        68
 IFFX  =        80 IFFFX =       158 IFLen =        12
 IFFLen=        78 IFFFLn=         0 IEDerv=       158
 LEDerv=       629 IFroze=       957 ICStrt=     59150
 Dipole        = 6.35949600D-15-2.91910960D-14-1.05030680D+00
 DipoleDeriv   =-3.89240508D-01-9.10105659D-16-2.58682925D-15
                -1.69254655D-15-5.37071387D-01 7.30989889D-15
                 4.26441986D-15 3.05287165D-14-1.16451509D+00
                 2.20933013D-01-1.94185171D-15-1.36334348D-15
                -3.35779635D-15 8.91851907D-01-1.62908286D-14
                -1.02684722D-14-4.89458047D-14 1.23359544D+00
                 8.41537475D-02-3.57406609D-16 2.28651057D-15
                 2.42848056D-16-1.77390260D-01 1.37542503D-01
                -5.80678838D-17 7.02814356D-02-3.45401721D-02
                 8.41537475D-02 3.20936397D-15 1.66366216D-15
                 4.80749484D-15-1.77390260D-01-1.37542503D-01
                 6.06212019D-15-7.02814356D-02-3.45401721D-02
 Polarizability= 1.08064547D+01 3.08534956D-14 1.53825425D+01
                 3.24753898D-14-2.26866733D-13 1.99391916D+01
 PolarDeriv    =-1.80468025D-14-1.23106989D-13 7.63954658D-15
                 3.57806261D+00-1.00557363D-15 1.32976342D-13
                 6.26802895D-14 7.90723335D-15-6.45130378D-13
                -6.90902871D-14 2.58042470D+00-5.45234642D-13
                 3.43244938D+00 6.05634862D-14-2.87638603D+00
                 3.24660917D-14 5.63378495D-14 1.11997571D+01
                 1.79457842D-13-4.03820960D-13 2.51374485D-13
                -2.50490871D+00-2.94181464D-13 1.83736191D-12
                -3.75239065D-13-1.52718054D-13-1.45881800D-13
                 1.06784871D-12 4.82540535D+00-5.87279534D-12
                -2.36091220D+00 3.05996686D-13 9.92257044D+00
                -4.48694073D-13-1.51856688D-12-5.07072680D+00
                 1.35811700D-13 1.29834541D+00-2.60918444D-13
                -5.36576948D-01 3.99524710D-13-1.38442108D-12
                 9.88728019D-01 5.12970430D-13 6.91699522D+00
                -7.02638328D-13-3.70291503D+00 2.03694460D+00
                -5.35768587D-01-2.28499732D-13-3.52309221D+00
                 5.89270210D-13 2.64854273D+00-3.06451516D+00
                -2.99383949D-13-1.29834541D+00 1.90441323D-15
                -5.36576948D-01-1.04337672D-13-5.85917178D-13
                -9.88728019D-01-3.69240214D-13-6.91699522D+00
                -2.96120100D-13-3.70291503D+00-2.03694460D+00
                -5.35768587D-01-1.38060440D-13-3.52309221D+00
                -1.74122833D-13-2.64854273D+00-3.06451516D+00
 HyperPolar    =-6.45844313D-13 4.22610855D-13-3.34546737D-15
                 9.79747460D-12-7.77437070D+00 1.26989762D-13
                -4.52516158D+01-3.73216800D-13 8.54204982D-12
                -3.99394074D+01
 Quadrupole    = 7.39425733D-02 2.17295566D-01-2.91238139D-01
                -1.14688534D-14-8.54916836D-15 8.08849295D-14
 -------------------------------------------------------------------
 Center     Atomic                   Forces (Hartrees/Bohr)
 Number     Number              X              Y              Z
 -------------------------------------------------------------------
      1        8          -0.000000000    0.000000000    0.000049097
      2        6           0.000000000    0.000000000   -0.004689962
      3        1           0.000000000   -0.004011167    0.002320432
      4        1           0.000000000    0.004011167    0.002320432
 -------------------------------------------------------------------
 Cartesian Forces:  Max     0.004689962 RMS     0.002326404
 Force constants in Cartesian coordinates: 
                1             2             3             4             5 
      1  0.235181D-01
      2  0.000000D+00  0.866583D-01
      3  0.000000D+00  0.000000D+00  0.106317D+01
      4 -0.710042D-01  0.000000D+00  0.000000D+00  0.218494D+00
      5  0.000000D+00 -0.121999D+00  0.000000D+00  0.000000D+00  0.639249D+00
      6  0.000000D+00  0.000000D+00 -0.967792D+00  0.000000D+00  0.000000D+00
      7  0.237431D-01  0.000000D+00  0.000000D+00 -0.737449D-01  0.000000D+00
      8  0.000000D+00  0.176702D-01  0.182922D-01  0.000000D+00 -0.258625D+00
      9  0.000000D+00  0.436025D-01 -0.476875D-01  0.000000D+00  0.834123D-01
     10  0.237431D-01  0.000000D+00  0.000000D+00 -0.737449D-01  0.000000D+00
     11  0.000000D+00  0.176702D-01 -0.182922D-01  0.000000D+00 -0.258625D+00
     12  0.000000D+00 -0.436025D-01 -0.476875D-01  0.000000D+00 -0.834123D-01
                6             7             8             9            10 
      6  0.118550D+01
      7  0.000000D+00  0.261390D-01
      8  0.820089D-01  0.000000D+00  0.261616D+00
      9 -0.108852D+00  0.000000D+00 -0.113658D+00  0.146593D+00
     10  0.000000D+00  0.238629D-01  0.000000D+00  0.000000D+00  0.261390D-01
     11 -0.820089D-01  0.000000D+00 -0.206614D-01 -0.133568D-01  0.000000D+00
     12 -0.108852D+00  0.000000D+00  0.133568D-01  0.994672D-02  0.000000D+00
               11            12 
     11  0.261616D+00
     12  0.113658D+00  0.146593D+00
 Final forces over variables, Energy=-1.13922319D+02:
 -1.60880713D-07 1.78026753D-08 1.78026760D-08-3.41879592D-08
 -3.41879590D-08 6.83759182D-08 5.37191787D-16
 Leave Link  716 at Tue Jul  9 11:11:13 2024, MaxMem=    97648640 cpu:               0.4 elap:               0.0
 (Enter /cluster/software/Gaussian/g16_B.01/l106.exe)
 NDeriv=      6 NFrqRd=  0 NDerD0=      0 MskFDP=       0 MskDFD=       0 MskDF0=       0
 Re-enter D2Numr:  normal mode   5 step-up   number 1
 Leave Link  106 at Tue Jul  9 11:11:13 2024, MaxMem=    97648640 cpu:               1.5 elap:               0.1
 (Enter /cluster/software/Gaussian/g16_B.01/l301.exe)
 Standard basis: CC-pVQZ (5D, 7F)
 Ernie: Thresh=  0.10000D-02 Tol=  0.10000D-05 Strict=F.
 Ernie:  6 primitive shells out of 90 were deleted.
   170 basis functions,   252 primitive gaussians,   210 cartesian basis functions
     8 alpha electrons        8 beta electrons
       nuclear repulsion energy        31.9965009539 Hartrees.
 IExCor=    0 DFT=F Ex=HF Corr=None ExCW=0 ScaHFX=  1.000000
 ScaDFX=  1.000000  1.000000  1.000000  1.000000 ScalE2=  1.000000  1.000000
 IRadAn=      5 IRanWt=     -1 IRanGd=            0 ICorTp=0 IEmpDi=  4
 NAtoms=    4 NActive=    4 NUniq=    4 SFac= 1.00D+00 NAtFMM=   60 NAOKFM=F Big=F
 Integral buffers will be    131072 words long.
 Raffenetti 1 integral format.
 Two-electron integral symmetry is turned off.
 Leave Link  301 at Tue Jul  9 11:11:13 2024, MaxMem=    97648640 cpu:               0.8 elap:               0.1
 (Enter /cluster/software/Gaussian/g16_B.01/l302.exe)
 NPDir=0 NMtPBC=     1 NCelOv=     1 NCel=       1 NClECP=     1 NCelD=      1
         NCelK=      1 NCelE2=     1 NClLst=     1 CellRange=     0.0.
 One-electron integrals computed using PRISM.
 PrsmSu:  requested number of processors reduced to:   4 ShMem   1 Linda.
 NBasis=   170 RedAO= T EigKep=  2.27D-04  NBF=   170
 NBsUse=   170 1.00D-06 EigRej= -1.00D+00 NBFU=   170
 Leave Link  302 at Tue Jul  9 11:11:13 2024, MaxMem=    97648640 cpu:               2.2 elap:               0.2
 (Enter /cluster/software/Gaussian/g16_B.01/l303.exe)
 DipDrv:  MaxL=1.
 Leave Link  303 at Tue Jul  9 11:11:13 2024, MaxMem=    97648640 cpu:               0.4 elap:               0.1
 (Enter /cluster/software/Gaussian/g16_B.01/l401.exe)
 Initial guess from the checkpoint file:  "inputFull_3q.chk"
 B after Tr=    -0.000000   -0.000000    0.000405
         Rot=    1.000000    0.000000   -0.000000    0.000000 Ang=   0.00 deg.
 Guess basis will be translated and rotated to current coordinates.
 JPrj=2 DoOrth=T DoCkMO=T.
 Leave Link  401 at Tue Jul  9 11:11:13 2024, MaxMem=    97648640 cpu:               1.5 elap:               0.1
 (Enter /cluster/software/Gaussian/g16_B.01/l502.exe)
 Two-electron integral symmetry not used.
 Closed shell SCF:
 Using DIIS extrapolation, IDIIS=  1040.
 NGot=    97648640 LenX=    97555748 LenY=    97511207
 Requested convergence on RMS density matrix=1.00D-08 within 128 cycles.
 Requested convergence on MAX density matrix=1.00D-06.
 Requested convergence on             energy=1.00D-06.
 No special actions if energy rises.
 Fock matrices will be formed incrementally for  20 cycles.

 Cycle   1  Pass 1  IDiag  1:
 FoFJK:  IHMeth= 1 ICntrl=       0 DoSepK=F KAlg= 0 I1Cent=           0 FoldK=F
 IRaf= 990000000 NMat=       1 IRICut=       1 DoRegI=T DoRafI=F ISym2E= 0 IDoP0=0 IntGTp=1.
 FoFCou: FMM=F IPFlag=           0 FMFlag=      100000 FMFlg1=           0
         NFxFlg=           0 DoJE=F BraDBF=F KetDBF=F FulRan=T
         wScrn=  0.000000 ICntrl=         0 IOpCl=  0 I1Cent=           0 NGrid=           0
         NMat0=    1 NMatS0=      1 NMatT0=    0 NMatD0=    1 NMtDS0=    0 NMtDT0=    0
 Symmetry not used in FoFCou.
 E= -113.922298061894    
 DIIS: error= 6.23D-04 at cycle   1 NSaved=   1.
 NSaved= 1 IEnMin= 1 EnMin= -113.922298061894     IErMin= 1 ErrMin= 6.23D-04
 ErrMax= 6.23D-04  0.00D+00 EMaxC= 1.00D-01 BMatC= 2.56D-05 BMatP= 2.56D-05
 IDIUse=3 WtCom= 9.94D-01 WtEn= 6.23D-03
 Coeff-Com:  0.100D+01
 Coeff-En:   0.100D+01
 Coeff:      0.100D+01
 Gap=     2.581 Goal=   None    Shift=    0.000
 RMSDP=2.00D-05 MaxDP=5.60D-04              OVMax= 1.28D-03

 Cycle   2  Pass 1  IDiag  1:
 RMSU=  1.99D-05    CP:  1.00D+00
 E= -113.922315554889     Delta-E=       -0.000017492995 Rises=F Damp=F
 DIIS: error= 1.71D-04 at cycle   2 NSaved=   2.
 NSaved= 2 IEnMin= 2 EnMin= -113.922315554889     IErMin= 2 ErrMin= 1.71D-04
 ErrMax= 1.71D-04  0.00D+00 EMaxC= 1.00D-01 BMatC= 1.95D-06 BMatP= 2.56D-05
 IDIUse=3 WtCom= 9.98D-01 WtEn= 1.71D-03
 Coeff-Com:  0.423D-01 0.958D+00
 Coeff-En:   0.000D+00 0.100D+01
 Coeff:      0.422D-01 0.958D+00
 Gap=     0.557 Goal=   None    Shift=    0.000
 RMSDP=4.79D-06 MaxDP=1.08D-04 DE=-1.75D-05 OVMax= 6.25D-04

 Cycle   3  Pass 1  IDiag  1:
 RMSU=  4.79D-06    CP:  1.00D+00  1.00D+00
 E= -113.922316740610     Delta-E=       -0.000001185721 Rises=F Damp=F
 DIIS: error= 9.59D-05 at cycle   3 NSaved=   3.
 NSaved= 3 IEnMin= 3 EnMin= -113.922316740610     IErMin= 3 ErrMin= 9.59D-05
 ErrMax= 9.59D-05  0.00D+00 EMaxC= 1.00D-01 BMatC= 7.64D-07 BMatP= 1.95D-06
 IDIUse=1 WtCom= 1.00D+00 WtEn= 0.00D+00
 Coeff-Com: -0.495D-01 0.376D+00 0.674D+00
 Coeff:     -0.495D-01 0.376D+00 0.674D+00
 Gap=     0.557 Goal=   None    Shift=    0.000
 RMSDP=2.60D-06 MaxDP=6.59D-05 DE=-1.19D-06 OVMax= 2.52D-04

 Cycle   4  Pass 1  IDiag  1:
 RMSU=  1.50D-06    CP:  1.00D+00  1.09D+00  7.46D-01
 E= -113.922317284540     Delta-E=       -0.000000543930 Rises=F Damp=F
 DIIS: error= 2.00D-05 at cycle   4 NSaved=   4.
 NSaved= 4 IEnMin= 4 EnMin= -113.922317284540     IErMin= 4 ErrMin= 2.00D-05
 ErrMax= 2.00D-05  0.00D+00 EMaxC= 1.00D-01 BMatC= 1.14D-08 BMatP= 7.64D-07
 IDIUse=1 WtCom= 1.00D+00 WtEn= 0.00D+00
 Coeff-Com: -0.142D-03-0.612D-01-0.160D-01 0.108D+01
 Coeff:     -0.142D-03-0.612D-01-0.160D-01 0.108D+01
 Gap=     0.557 Goal=   None    Shift=    0.000
 RMSDP=6.94D-07 MaxDP=1.80D-05 DE=-5.44D-07 OVMax= 8.22D-05

 Cycle   5  Pass 1  IDiag  1:
 RMSU=  3.82D-07    CP:  1.00D+00  1.10D+00  8.13D-01  1.26D+00
 E= -113.922317305014     Delta-E=       -0.000000020473 Rises=F Damp=F
 DIIS: error= 3.53D-06 at cycle   5 NSaved=   5.
 NSaved= 5 IEnMin= 5 EnMin= -113.922317305014     IErMin= 5 ErrMin= 3.53D-06
 ErrMax= 3.53D-06  0.00D+00 EMaxC= 1.00D-01 BMatC= 7.74D-10 BMatP= 1.14D-08
 IDIUse=1 WtCom= 1.00D+00 WtEn= 0.00D+00
 Coeff-Com:  0.262D-02-0.276D-01-0.332D-01 0.528D-01 0.101D+01
 Coeff:      0.262D-02-0.276D-01-0.332D-01 0.528D-01 0.101D+01
 Gap=     0.557 Goal=   None    Shift=    0.000
 RMSDP=2.63D-07 MaxDP=7.02D-06 DE=-2.05D-08 OVMax= 2.24D-05

 Cycle   6  Pass 1  IDiag  1:
 RMSU=  1.21D-07    CP:  1.00D+00  1.11D+00  8.24D-01  1.39D+00  1.11D+00
 E= -113.922317306560     Delta-E=       -0.000000001547 Rises=F Damp=F
 DIIS: error= 1.15D-06 at cycle   6 NSaved=   6.
 NSaved= 6 IEnMin= 6 EnMin= -113.922317306560     IErMin= 6 ErrMin= 1.15D-06
 ErrMax= 1.15D-06  0.00D+00 EMaxC= 1.00D-01 BMatC= 3.46D-11 BMatP= 7.74D-10
 IDIUse=1 WtCom= 1.00D+00 WtEn= 0.00D+00
 Coeff-Com: -0.896D-05 0.294D-02 0.200D-02-0.635D-01-0.973D-02 0.107D+01
 Coeff:     -0.896D-05 0.294D-02 0.200D-02-0.635D-01-0.973D-02 0.107D+01
 Gap=     0.557 Goal=   None    Shift=    0.000
 RMSDP=7.33D-08 MaxDP=1.82D-06 DE=-1.55D-09 OVMax= 6.48D-06

 Cycle   7  Pass 1  IDiag  1:
 RMSU=  1.61D-08    CP:  1.00D+00  1.11D+00  8.28D-01  1.41D+00  1.18D+00
                    CP:  1.35D+00
 E= -113.922317306640     Delta-E=       -0.000000000080 Rises=F Damp=F
 DIIS: error= 1.10D-07 at cycle   7 NSaved=   7.
 NSaved= 7 IEnMin= 7 EnMin= -113.922317306640     IErMin= 7 ErrMin= 1.10D-07
 ErrMax= 1.10D-07  0.00D+00 EMaxC= 1.00D-01 BMatC= 9.23D-13 BMatP= 3.46D-11
 IDIUse=1 WtCom= 1.00D+00 WtEn= 0.00D+00
 Coeff-Com: -0.116D-03 0.918D-03 0.109D-02 0.473D-02-0.363D-01-0.123D+00
 Coeff-Com:  0.115D+01
 Coeff:     -0.116D-03 0.918D-03 0.109D-02 0.473D-02-0.363D-01-0.123D+00
 Coeff:      0.115D+01
 Gap=     0.557 Goal=   None    Shift=    0.000
 RMSDP=1.81D-08 MaxDP=6.60D-07 DE=-7.96D-11 OVMax= 9.41D-07

 Cycle   8  Pass 1  IDiag  1:
 RMSU=  2.52D-09    CP:  1.00D+00  1.11D+00  8.28D-01  1.42D+00  1.19D+00
                    CP:  1.46D+00  1.36D+00
 E= -113.922317306642     Delta-E=       -0.000000000002 Rises=F Damp=F
 DIIS: error= 1.93D-08 at cycle   8 NSaved=   8.
 NSaved= 8 IEnMin= 8 EnMin= -113.922317306642     IErMin= 8 ErrMin= 1.93D-08
 ErrMax= 1.93D-08  0.00D+00 EMaxC= 1.00D-01 BMatC= 3.30D-14 BMatP= 9.23D-13
 IDIUse=1 WtCom= 1.00D+00 WtEn= 0.00D+00
 Coeff-Com:  0.226D-04-0.228D-03-0.331D-03 0.936D-04 0.815D-02 0.106D-01
 Coeff-Com: -0.286D+00 0.127D+01
 Coeff:      0.226D-04-0.228D-03-0.331D-03 0.936D-04 0.815D-02 0.106D-01
 Coeff:     -0.286D+00 0.127D+01
 Gap=     0.557 Goal=   None    Shift=    0.000
 RMSDP=2.71D-09 MaxDP=8.89D-08 DE=-2.25D-12 OVMax= 1.21D-07

 SCF Done:  E(RHF) =  -113.922317307     A.U. after    8 cycles
            NFock=  8  Conv=0.27D-08     -V/T= 1.9998
 KE= 1.139405344299D+02 PE=-3.326800642871D+02 EE= 7.282071159673D+01
 Leave Link  502 at Tue Jul  9 11:11:20 2024, MaxMem=    97648640 cpu:             106.5 elap:               6.7
 (Enter /cluster/software/Gaussian/g16_B.01/l801.exe)
 Range of M.O.s used for correlation:     1   170
 NBasis=   170 NAE=     8 NBE=     8 NFC=     0 NFV=     0
 NROrb=    170 NOA=     8 NOB=     8 NVA=   162 NVB=   162

 **** Warning!!: The largest alpha MO coefficient is  0.16473907D+02

 Leave Link  801 at Tue Jul  9 11:11:20 2024, MaxMem=    97648640 cpu:               0.3 elap:               0.0
 (Enter /cluster/software/Gaussian/g16_B.01/l1002.exe)
 Minotr:  Closed shell wavefunction.
          Direct CPHF calculation.
          Differentiating once with respect to electric field.
                with respect to dipole field.
          Electric field/nuclear overlap derivatives assumed to be zero.
          Requested convergence is 1.0D-08 RMS, and 1.0D-07 maximum.
          Secondary convergence is 1.0D-12 RMS, and 1.0D-12 maximum.
          NewPWx=F KeepS1=T KeepF1=T KeepIn=T MapXYZ=F SortEE=F KeepMc=T.
 Two-electron integral symmetry not used.
          MDV=      97648640 using IRadAn=       4.
          Solving linear equations simultaneously, MaxMat=     384.
          There are     3 degrees of freedom in the 1st order CPHF.  IDoFFX=0 NUNeed=     3.
      3 vectors produced by pass  0 Test12= 4.32D-14 3.33D-08 XBig12= 5.12D+00 1.49D+00.
 AX will form     3 AO Fock derivatives at one time.
 FoFJK:  IHMeth= 1 ICntrl=       0 DoSepK=F KAlg= 0 I1Cent=           0 FoldK=F
 IRaf= 990000000 NMat=       3 IRICut=       1 DoRegI=T DoRafI=F ISym2E= 0 IDoP0=0 IntGTp=1.
 FoFCou: FMM=F IPFlag=           0 FMFlag=      100000 FMFlg1=           0
         NFxFlg=           0 DoJE=F BraDBF=F KetDBF=F FulRan=T
         wScrn=  0.000000 ICntrl=         0 IOpCl=  0 I1Cent=           0 NGrid=           0
         NMat0=    3 NMatS0=      3 NMatT0=    0 NMatD0=    3 NMtDS0=    0 NMtDT0=    0
 Symmetry not used in FoFCou.
      3 vectors produced by pass  1 Test12= 4.32D-14 3.33D-08 XBig12= 6.90D-01 2.32D-01.
      3 vectors produced by pass  2 Test12= 4.32D-14 3.33D-08 XBig12= 6.17D-02 9.48D-02.
      3 vectors produced by pass  3 Test12= 4.32D-14 3.33D-08 XBig12= 2.37D-03 1.87D-02.
      3 vectors produced by pass  4 Test12= 4.32D-14 3.33D-08 XBig12= 9.49D-05 3.91D-03.
      3 vectors produced by pass  5 Test12= 4.32D-14 3.33D-08 XBig12= 8.80D-06 1.07D-03.
      3 vectors produced by pass  6 Test12= 4.32D-14 3.33D-08 XBig12= 9.97D-08 9.18D-05.
      3 vectors produced by pass  7 Test12= 4.32D-14 3.33D-08 XBig12= 1.23D-09 1.06D-05.
      3 vectors produced by pass  8 Test12= 4.32D-14 3.33D-08 XBig12= 1.19D-11 9.68D-07.
      1 vectors produced by pass  9 Test12= 4.32D-14 3.33D-08 XBig12= 2.88D-13 1.83D-07.
 InvSVY:  IOpt=1 It=  1 EMax= 1.76D-16
 Solved reduced A of dimension    28 with     3 vectors.
 End of Minotr F.D. properties file   721 does not exist.
 End of Minotr F.D. properties file   722 does not exist.
 End of Minotr F.D. properties file   788 does not exist.
 Leave Link 1002 at Tue Jul  9 11:11:29 2024, MaxMem=    97648640 cpu:             149.6 elap:               9.4
 (Enter /cluster/software/Gaussian/g16_B.01/l1101.exe)
 Using compressed storage, NAtomX=     4.
 Will process      5 centers per pass.
 PrsmSu:  requested number of processors reduced to:   2 ShMem   1 Linda.
 PrsmSu:  requested number of processors reduced to:   9 ShMem   1 Linda.
 Leave Link 1101 at Tue Jul  9 11:11:30 2024, MaxMem=    97648640 cpu:               1.5 elap:               0.2
 (Enter /cluster/software/Gaussian/g16_B.01/l1102.exe)
 Symmetrizing basis deriv contribution to polar:
 IMax=3 JMax=2 DiffMx= 0.00D+00
 Leave Link 1102 at Tue Jul  9 11:11:30 2024, MaxMem=    97648640 cpu:               0.4 elap:               0.1
 (Enter /cluster/software/Gaussian/g16_B.01/l1110.exe)
 Forming Gx(P) for the SCF density, NAtomX=     4.
 Integral derivatives from FoFJK, PRISM(SPDF).
 Do as many integral derivatives as possible in FoFJK.
 G2DrvN: MDV=      97648192.
 G2DrvN: will do     3 centers at a time, making    2 passes.
 Estimated number of processors is:   10
 G2DrvN:  IPasSy=1 do centers    0 through    2.
 PxScal for G2LodP:  IOpCl= 0 ISclPx=1 IMOff=     1 NMtTot=     4 NTT=   14535 ScalPx= 2.48D+00
 Calling FoFCou, ICntrl=  3107 FMM=F I1Cent=   0 AccDes= 0.00D+00.
 FoFJK:  IHMeth= 1 ICntrl=    3107 DoSepK=F KAlg= 0 I1Cent=           0 FoldK=F
 IRaf=         0 NMat=       1 IRICut=       1 DoRegI=T DoRafI=F ISym2E= 0 IDoP0=0 IntGTp=1.
 FoFCou: FMM=F IPFlag=           0 FMFlag=      100000 FMFlg1=           0
         NFxFlg=           0 DoJE=F BraDBF=F KetDBF=F FulRan=T
         wScrn=  0.000000 ICntrl=      3107 IOpCl=  0 I1Cent=           0 NGrid=           0
         NMat0=    1 NMatS0=      1 NMatT0=    0 NMatD0=    4 NMtDS0=    3 NMtDT0=    0
 Symmetry not used in FoFCou.
 CoulSu:  requested number of processors reduced to:  10 ShMem   1 Linda.
 G2DrvN:  IPasSy=1 do centers    3 through    4.
 PxScal for G2LodP:  IOpCl= 0 ISclPx=1 IMOff=     1 NMtTot=     4 NTT=   14535 ScalPx= 2.48D+00
 Calling FoFCou, ICntrl=  3107 FMM=F I1Cent=   0 AccDes= 0.00D+00.
 CoulSu:  requested number of processors reduced to:  10 ShMem   1 Linda.
 End of G2Drv F.D. properties file   721 does not exist.
 End of G2Drv F.D. properties file   722 does not exist.
 End of G2Drv F.D. properties file   788 does not exist.
 Leave Link 1110 at Tue Jul  9 11:11:41 2024, MaxMem=    97648640 cpu:             115.1 elap:              11.4
 (Enter /cluster/software/Gaussian/g16_B.01/l1002.exe)
 Minotr:  Closed shell wavefunction.
          IDoAtm=1111
          Direct CPHF calculation.
          Differentiating once with respect to electric field.
                with respect to dipole field.
          Differentiating once with respect to nuclear coordinates.
          Requested convergence is 1.0D-08 RMS, and 1.0D-07 maximum.
          Secondary convergence is 1.0D-12 RMS, and 1.0D-12 maximum.
          NewPWx=T KeepS1=F KeepF1=F KeepIn=T MapXYZ=F SortEE=F KeepMc=T.
 Two-electron integral symmetry not used.
          MDV=      97648640 using IRadAn=       4.
          Solving linear equations simultaneously, MaxMat=     384.
 FoF2E skips out because all densities are zero.
 FoFJK:  IHMeth= 1 ICntrl=       0 DoSepK=F KAlg= 0 I1Cent=           0 FoldK=F
 IRaf= 990000000 NMat=       4 IRICut=       1 DoRegI=T DoRafI=F ISym2E= 0 IDoP0=0 IntGTp=1.
 FoFCou: FMM=F IPFlag=           0 FMFlag=      100000 FMFlg1=           0
         NFxFlg=           0 DoJE=F BraDBF=F KetDBF=F FulRan=T
         wScrn=  0.000000 ICntrl=         0 IOpCl=  0 I1Cent=           0 NGrid=           0
         NMat0=    4 NMatS0=      4 NMatT0=    0 NMatD0=    4 NMtDS0=    0 NMtDT0=    0
 Symmetry not used in FoFCou.
          There are    15 degrees of freedom in the 1st order CPHF.  IDoFFX=5 NUNeed=    15.
 Will reuse    3 saved solutions.
      9 vectors produced by pass  0 Test12= 8.64D-15 6.67D-09 XBig12= 6.13D-02 9.02D-02.
 AX will form     3 AO Fock derivatives at one time.
      9 vectors produced by pass  1 Test12= 8.64D-15 6.67D-09 XBig12= 1.03D-02 4.67D-02.
      9 vectors produced by pass  2 Test12= 8.64D-15 6.67D-09 XBig12= 2.20D-04 5.71D-03.
      9 vectors produced by pass  3 Test12= 8.64D-15 6.67D-09 XBig12= 2.10D-06 4.57D-04.
      9 vectors produced by pass  4 Test12= 8.64D-15 6.67D-09 XBig12= 2.26D-08 5.58D-05.
      9 vectors produced by pass  5 Test12= 8.64D-15 6.67D-09 XBig12= 2.00D-10 5.27D-06.
      8 vectors produced by pass  6 Test12= 8.64D-15 6.67D-09 XBig12= 2.50D-12 6.19D-07.
      5 vectors produced by pass  7 Test12= 8.64D-15 6.67D-09 XBig12= 1.69D-14 2.74D-08.
 InvSVY:  IOpt=1 It=  1 EMax= 6.66D-16
 Solved reduced A of dimension    67 with     9 vectors.
 FullF1:  Do perturbations      1 to       3.
 Isotropic polarizability for W=    0.000000       15.17 Bohr**3.
 FullF1:  Do perturbations      1 to       3.
 FullF1:  Do perturbations      4 to       6.
 End of Minotr F.D. properties file   721 does not exist.
 End of Minotr F.D. properties file   722 does not exist.
 End of Minotr F.D. properties file   788 does not exist.
 Leave Link 1002 at Tue Jul  9 11:12:10 2024, MaxMem=    97648640 cpu:             456.9 elap:              28.7
 (Enter /cluster/software/Gaussian/g16_B.01/l601.exe)
 Copying SCF densities to generalized density rwf, IOpCl= 0 IROHF=0.

 **********************************************************************

            Population analysis using the SCF Density.

 **********************************************************************

 Alpha  occ. eigenvalues --  -20.57184 -11.33008  -1.42349  -0.87087  -0.70428
 Alpha  occ. eigenvalues --   -0.65988  -0.54833  -0.44029
 Alpha virt. eigenvalues --    0.11668   0.12277   0.17615   0.21816   0.33649
 Alpha virt. eigenvalues --    0.34478   0.34497   0.46935   0.48085   0.54167
 Alpha virt. eigenvalues --    0.54646   0.62928   0.65299   0.67601   0.74573
 Alpha virt. eigenvalues --    0.75052   0.81821   0.87048   0.90437   0.96009
 Alpha virt. eigenvalues --    1.02599   1.07908   1.12403   1.14327   1.21934
 Alpha virt. eigenvalues --    1.33881   1.46433   1.47051   1.50977   1.54356
 Alpha virt. eigenvalues --    1.63115   1.63200   1.73549   1.78906   1.87751
 Alpha virt. eigenvalues --    1.92199   2.02417   2.04147   2.04957   2.07233
 Alpha virt. eigenvalues --    2.10775   2.13856   2.28746   2.37053   2.38052
 Alpha virt. eigenvalues --    2.38166   2.48788   2.58366   2.62042   2.67177
 Alpha virt. eigenvalues --    2.67229   2.79309   2.81754   2.88414   2.91360
 Alpha virt. eigenvalues --    3.09766   3.10336   3.20415   3.22626   3.42964
 Alpha virt. eigenvalues --    3.49189   3.59209   3.62835   3.68032   3.70895
 Alpha virt. eigenvalues --    3.73288   3.75000   3.90144   4.05127   4.06623
 Alpha virt. eigenvalues --    4.13339   4.33446   4.38388   4.40037   4.58648
 Alpha virt. eigenvalues --    4.61671   4.71136   4.73177   5.05646   5.06704
 Alpha virt. eigenvalues --    5.38282   5.42006   5.50225   5.54043   5.68669
 Alpha virt. eigenvalues --    5.72548   5.84058   6.02074   6.03940   6.10297
 Alpha virt. eigenvalues --    6.20277   6.26562   6.28319   6.28422   6.34973
 Alpha virt. eigenvalues --    6.38904   6.42197   6.51293   6.63957   6.76440
 Alpha virt. eigenvalues --    6.76926   6.80151   6.93984   7.02852   7.24475
 Alpha virt. eigenvalues --    7.50568   7.59760   7.71557   7.71588   7.76333
 Alpha virt. eigenvalues --    7.82700   7.85402   7.88379   7.97280   8.04236
 Alpha virt. eigenvalues --    8.08743   8.28710   8.29560   8.47399   8.50719
 Alpha virt. eigenvalues --    8.54841   8.61211   8.77836   8.88039   8.91614
 Alpha virt. eigenvalues --    9.00524   9.30559   9.35547   9.39255   9.46972
 Alpha virt. eigenvalues --    9.61794   9.68618   9.96400  10.21094  10.30675
 Alpha virt. eigenvalues --   10.33101  10.38526  10.57180  10.63600  10.75626
 Alpha virt. eigenvalues --   10.75902  10.95482  11.15500  11.26799  11.43123
 Alpha virt. eigenvalues --   11.59947  11.62297  11.62316  11.86250  12.00143
 Alpha virt. eigenvalues --   12.24083  12.37711  12.64211  12.76849  12.92477
 Alpha virt. eigenvalues --   13.02381  13.37582  13.92994  14.48256  14.69869
 Alpha virt. eigenvalues --   26.02209  42.81394
          Condensed to atoms (all electrons):
               1          2          3          4
     1  O    7.844075   0.685626  -0.081351  -0.081351
     2  C    0.685626   4.199053   0.394554   0.394554
     3  H   -0.081351   0.394554   0.817802  -0.151399
     4  H   -0.081351   0.394554  -0.151399   0.817802
 Mulliken charges:
               1
     1  O   -0.366999
     2  C    0.326213
     3  H    0.020393
     4  H    0.020393
 Sum of Mulliken charges =   0.00000
 Mulliken charges with hydrogens summed into heavy atoms:
               1
     1  O   -0.366999
     2  C    0.366999
 APT charges:
               1
     1  O   -0.691624
     2  C    0.768605
     3  H   -0.038490
     4  H   -0.038490
 Sum of APT charges =  -0.00000
 APT charges with hydrogens summed into heavy atoms:
               1
     1  O   -0.691624
     2  C    0.691624
 Electronic spatial extent (au):  <R**2>=             58.7998
 Charge=              0.0000 electrons
 Dipole moment (field-independent basis, Debye):
    X=              0.0000    Y=              0.0000    Z=             -2.6944  Tot=              2.6944
 Quadrupole moment (field-independent basis, Debye-Ang):
   XX=            -11.5805   YY=            -11.4040   ZZ=            -12.0666
   XY=             -0.0000   XZ=             -0.0000   YZ=              0.0000
 Traceless Quadrupole moment (field-independent basis, Debye-Ang):
   XX=              0.1032   YY=              0.2797   ZZ=             -0.3829
   XY=             -0.0000   XZ=             -0.0000   YZ=              0.0000
 Octapole moment (field-independent basis, Debye-Ang**2):
  XXX=             -0.0000  YYY=              0.0000  ZZZ=              0.1688  XYY=             -0.0000
  XXY=              0.0000  XXZ=              0.4304  XZZ=              0.0000  YZZ=              0.0000
  YYZ=             -0.6050  XYZ=             -0.0000
 Hexadecapole moment (field-independent basis, Debye-Ang**3):
 XXXX=            -10.0770 YYYY=            -17.1489 ZZZZ=            -43.2653 XXXY=             -0.0000
 XXXZ=             -0.0000 YYYX=             -0.0000 YYYZ=             -0.0000 ZZZX=             -0.0000
 ZZZY=              0.0000 XXYY=             -4.8784 XXZZ=             -8.8149 YYZZ=             -9.6648
 XXYZ=             -0.0000 YYXZ=             -0.0000 ZZXY=             -0.0000
 N-N= 3.199650095386D+01 E-N=-3.326800642350D+02  KE= 1.139405344299D+02
  Exact polarizability:  10.754   0.000  14.966   0.000  -0.000  19.780
 Approx polarizability:  10.410   0.000  12.221   0.000  -0.000  17.282
 No NMR shielding tensors so no spin-rotation constants.
 Leave Link  601 at Tue Jul  9 11:12:10 2024, MaxMem=    97648640 cpu:               2.6 elap:               0.2
 (Enter /cluster/software/Gaussian/g16_B.01/l701.exe)
 SCFChk:  SCF convergence  2.71D-09 required  1.00D-08
 ... and contract with generalized density number  0.
 Compute integral second derivatives.
 Entering OneElI...
 Calculate overlap and kinetic energy integrals
    NBasis = 210  MinDer = 2  MaxDer = 2
 Requested accuracy = 0.1000D-12
 PrsmSu:  requested number of processors reduced to:   1 ShMem   1 Linda.
 PrmmSu-InSpLW:  IPartL=    0 NPrtUS=    1 NPrtUL=    1 DoSpLW=F IThBeg=    0 IThEnd=    0 NThAct=    1.
 PrSmSu:  IncTry=   512 NBBP=           1275 NTPThr=   100 NPartT=    1 Incr=          12 LDynOK=F GPUOK=F.
 PrsmSu:  NPrtUS=   1 ThrOK=F IAlg=2 LenDen=           0 ISkipM=0 DoSpLW=F IThBeg=    0 IThEnd=    0.
 Prism:   IPart=     0 DynPar=F LinDyn=F Incr=          12.
 PRISM was handed    97371836 working-precision words and  1275 shell-pairs
 IPart=  0 NShTot=        1275 NBatch=          77 AvBLen=        16.6
 PrSmSu:  NxtVal=             13.
 Entering OneElI...
 Calculate potential energy integrals
    NBasis = 210  MinDer = 2  MaxDer = 2
 Requested accuracy = 0.1000D-12
 PrsmSu:  requested number of processors reduced to:   4 ShMem   1 Linda.
 PrmmSu-InSpLW:  IPartL=    0 NPrtUS=    4 NPrtUL=    1 DoSpLW=F IThBeg=    0 IThEnd=    3 NThAct=    4.
 PrSmSu:  IncTry=   512 NBBP=           5092 NTPThr=   100 NPartT=    4 Incr=          12 LDynOK=F GPUOK=F.
 PrsmSu:  NPrtUS=   4 ThrOK=T IAlg=2 LenDen=           0 ISkipM=0 DoSpLW=F IThBeg=    0 IThEnd=    3.
 Prism:   IPart=     0 DynPar=F LinDyn=F Incr=          12.
 PRISM was handed    24334039 working-precision words and  1273 shell-pairs
 PRISM was handed    24334039 working-precision words and  1273 shell-pairs
 PRISM was handed    24334039 working-precision words and  1273 shell-pairs
 PRISM was handed    24334039 working-precision words and  1273 shell-pairs
 IPart=  0 NShTot=        1332 NBatch=         333 AvBLen=         4.0
 IPart=  2 NShTot=        1236 NBatch=         309 AvBLen=         4.0
 IPart=  3 NShTot=        1224 NBatch=         306 AvBLen=         4.0
 IPart=  1 NShTot=        1300 NBatch=         325 AvBLen=         4.0
 PrSmSu:  NxtVal=             49.
 Polarizability after L701:
                1             2             3 
      1  0.107538D+02
      2  0.000000D+00  0.149657D+02
      3  0.000000D+00  0.000000D+00  0.197804D+02
 Dipole Derivatives after L701:
                 1             2             3             4             5 
      1  -0.393548D+00  0.000000D+00  0.000000D+00  0.223518D+00  0.000000D+00
      2   0.000000D+00 -0.535958D+00  0.000000D+00  0.000000D+00  0.872962D+00
      3   0.000000D+00  0.000000D+00 -0.114537D+01  0.000000D+00  0.000000D+00
                 6             7             8             9            10 
      1   0.000000D+00  0.850149D-01  0.000000D+00  0.000000D+00  0.850149D-01
      2   0.000000D+00  0.000000D+00 -0.168502D+00  0.672564D-01  0.000000D+00
      3   0.120934D+01  0.000000D+00  0.135301D+00 -0.319841D-01  0.000000D+00
                11            12 
      1   0.000000D+00  0.000000D+00
      2  -0.168502D+00 -0.672564D-01
      3  -0.135301D+00 -0.319841D-01
 Hessian after L701:
                1             2             3             4             5 
      1  0.130646D+02
      2  0.000000D+00  0.105766D+02
      3  0.000000D+00  0.000000D+00 -0.880868D+00
      4 -0.132035D+02  0.000000D+00  0.000000D+00  0.180742D+02
      5  0.000000D+00 -0.117201D+02  0.000000D+00  0.000000D+00  0.143603D+02
      6  0.000000D+00  0.000000D+00  0.140852D+01  0.000000D+00  0.000000D+00
      7  0.694362D-01  0.000000D+00  0.000000D+00 -0.243537D+01  0.000000D+00
      8  0.000000D+00  0.571756D+00 -0.282663D+00  0.000000D+00 -0.132009D+01
      9  0.000000D+00 -0.326133D+00 -0.263826D+00  0.000000D+00 -0.897457D+00
     10  0.694362D-01  0.000000D+00  0.000000D+00 -0.243537D+01  0.000000D+00
     11  0.000000D+00  0.571756D+00  0.282663D+00  0.000000D+00 -0.132009D+01
     12  0.000000D+00  0.326133D+00 -0.263826D+00  0.000000D+00  0.897457D+00
                6             7             8             9            10 
      6  0.246548D+01
      7  0.000000D+00  0.207371D+01
      8 -0.790402D+00  0.000000D+00  0.129621D+01
      9 -0.193700D+01  0.000000D+00  0.114833D+01  0.187799D+01
     10  0.000000D+00  0.292222D+00  0.000000D+00  0.000000D+00  0.207371D+01
     11  0.790402D+00  0.000000D+00 -0.547873D+00  0.752631D-01  0.000000D+00
     12 -0.193700D+01  0.000000D+00 -0.752631D-01  0.322843D+00  0.000000D+00
               11            12 
     11  0.129621D+01
     12 -0.114833D+01  0.187799D+01
 Leave Link  701 at Tue Jul  9 11:12:10 2024, MaxMem=    97648640 cpu:               1.0 elap:               0.3
 (Enter /cluster/software/Gaussian/g16_B.01/l702.exe)
 L702 exits ... SP integral derivatives will be done elsewhere.
 Leave Link  702 at Tue Jul  9 11:12:10 2024, MaxMem=    97648640 cpu:               0.3 elap:               0.0
 (Enter /cluster/software/Gaussian/g16_B.01/l703.exe)
 Integral derivatives from FoFJK, PRISM(SPDF).
 Compute integral second derivatives, UseDBF=F ICtDFT=           0.
 ICntrl=    100127.
 Calling FoFJK, ICntrl=    100127 FMM=F ISym2X=0 I1Cent= 0 IOpClX= 0 NMat=1 NMatS=1 NMatT=0.
 FoFJK:  IHMeth= 1 ICntrl=  100127 DoSepK=F KAlg= 0 I1Cent=           0 FoldK=F
 IRaf=         0 NMat=       1 IRICut=       1 DoRegI=T DoRafI=F ISym2E= 0 IDoP0=0 IntGTp=1.
 FoFCou: FMM=F IPFlag=           0 FMFlag=      100000 FMFlg1=         800
         NFxFlg=           0 DoJE=F BraDBF=F KetDBF=F FulRan=T
         wScrn=  0.000000 ICntrl=    100127 IOpCl=  0 I1Cent=           0 NGrid=           0
         NMat0=    1 NMatS0=      1 NMatT0=    0 NMatD0=    1 NMtDS0=    0 NMtDT0=    0
 Symmetry not used in FoFCou.
 FoFCou:  KetSym=F NOpSet=  1 NOpAb=1 NOp=  1.
 FoFCou:  CnvScl= 1.00D+00 Thresh= 1.00D-12 IAcrcy=      10.
 PrismS was handed    97482752 working-precision words and  1275 shell-pairs
 FoFCou: LinMIO=F DoNuc=F BraDBF=F KetDBF=F HaveP=T PDBF=F HaveZ=T HaveW=F
         NIJTC =      15 NIJTAt=       0 NIJTCD=       0 NIJTT =      15
         IJTBeg=       1 IJTEnd=      15 KLTBeg=       1 KLTEnd=      15
         IPTBeg=       1 IPTEnd=      15 IPTBCv=       1 IPTECv=      15
         IZTBeg=       1 IZTEnd=      15 IZTBCv=       1 IZTECv=      15
         IWTBeg=      16 IWTEnd=      15 IWTBCv=      16 IWTECv=      15
         INTBeg=       1 INTEnd=       0 IFTBCv=       1 IFTECv=      15
 NCel replicated for PrismC:     1
 CoulSu:  requested number of processors reduced to:   4 ShMem   1 Linda.
 CoulSu-InSpLW:  IPartL=    0 NPrtUS=    4 NPrtUL=    1 DoSpLW=F IThBeg=    0 IThEnd=    3 NThAct=    4.
 CoulSu:  IncTry=  1024 NBBP=         813450 NTPThr=   100 NPartT=    4 Incr=        1024 LDynOK=F GPUOK=F.
 CoulSu:  NPrtUS=   4 ThrOK=T IAlg=2 LenDen=           0 LWGrdD=           0 DoCopy=F ISkipM=0
          DoSpLW=F IThBeg=    0 IThEnd=    3.
 Enter PrismC:  IPart=  0 JobTyp=22 DoJE=F Cont=F.
 PrismC:  IPart=     0 DynPar=T LinDyn=F Incr=        1024 UseFst=F UseS4=T ISplat=2.
 PrismC was handed    24349282 working-precision words and  1275 shell-pairs
 Enter PrismC:  IPart=  1 JobTyp=22 DoJE=F Cont=F.
 Enter PrismC:  IPart=  3 JobTyp=22 DoJE=F Cont=F.
 PrismC:  IPart=     1 DynPar=T LinDyn=F Incr=        1024 UseFst=F UseS4=T ISplat=2.
 PrismC was handed    24349282 working-precision words and  1275 shell-pairs
 PrismC:  IPart=     3 DynPar=T LinDyn=F Incr=        1024 UseFst=F UseS4=T ISplat=2.
 PrismC was handed    24349282 working-precision words and  1275 shell-pairs
 Enter PrismC:  IPart=  2 JobTyp=22 DoJE=F Cont=F.
 PrismC:  IPart=     2 DynPar=T LinDyn=F Incr=        1024 UseFst=F UseS4=T ISplat=2.
 PrismC was handed    24349282 working-precision words and  1275 shell-pairs
 IPart=  2 NShTot=      185155 NShNF=      185155 NShFF=           0 MinMC=       3
           NShCPU=      185155 NBCPU=        6846 AvBCPU=        27.0
           NShGPU=           0 NBGPU=           0 AvBGPU=         0.0
 IPart=  3 NShTot=      191102 NShNF=      191102 NShFF=           0 MinMC=       3
           NShCPU=      191102 NBCPU=        7412 AvBCPU=        25.8
           NShGPU=           0 NBGPU=           0 AvBGPU=         0.0
 IPart=  1 NShTot=      186438 NShNF=      186438 NShFF=           0 MinMC=       3
           NShCPU=      186438 NBCPU=        7067 AvBCPU=        26.4
           NShGPU=           0 NBGPU=           0 AvBGPU=         0.0
 IPart=  0 NShTot=      236346 NShNF=      236346 NShFF=           0 MinMC=       3
           NShCPU=      236346 NBCPU=        8648 AvBCPU=        27.3
           NShGPU=           0 NBGPU=           0 AvBGPU=         0.0
 CoulSu:  NxtVal=         861185 LenVP=       24349283 MinMC=       3.
 Polarizability after L703:
                1             2             3 
      1  0.107538D+02
      2  0.000000D+00  0.149657D+02
      3  0.000000D+00  0.000000D+00  0.197804D+02
 Dipole Derivatives after L703:
                 1             2             3             4             5 
      1  -0.393548D+00  0.000000D+00  0.000000D+00  0.223518D+00  0.000000D+00
      2   0.000000D+00 -0.535958D+00  0.000000D+00  0.000000D+00  0.872962D+00
      3   0.000000D+00  0.000000D+00 -0.114537D+01  0.000000D+00  0.000000D+00
                 6             7             8             9            10 
      1   0.000000D+00  0.850149D-01  0.000000D+00  0.000000D+00  0.850149D-01
      2   0.000000D+00  0.000000D+00 -0.168502D+00  0.672564D-01  0.000000D+00
      3   0.120934D+01  0.000000D+00  0.135301D+00 -0.319841D-01  0.000000D+00
                11            12 
      1   0.000000D+00  0.000000D+00
      2  -0.168502D+00 -0.672564D-01
      3  -0.135301D+00 -0.319841D-01
 Hessian after L703:
                1             2             3             4             5 
      1  0.235704D-01
      2  0.000000D+00  0.868956D-01
      3  0.000000D+00  0.000000D+00  0.106035D+01
      4 -0.717841D-01  0.000000D+00  0.000000D+00  0.214272D+00
      5  0.000000D+00 -0.123332D+00  0.000000D+00  0.000000D+00  0.681527D+00
      6  0.000000D+00  0.000000D+00 -0.964619D+00  0.000000D+00  0.000000D+00
      7  0.241069D-01  0.000000D+00  0.000000D+00 -0.712441D-01  0.000000D+00
      8  0.000000D+00  0.182180D-01  0.175939D-01  0.000000D+00 -0.279097D+00
      9  0.000000D+00  0.441586D-01 -0.478636D-01  0.000000D+00  0.968293D-01
     10  0.241069D-01  0.000000D+00  0.000000D+00 -0.712441D-01  0.000000D+00
     11  0.000000D+00  0.182180D-01 -0.175939D-01  0.000000D+00 -0.279097D+00
     12  0.000000D+00 -0.441586D-01 -0.478636D-01  0.000000D+00 -0.968293D-01
                6             7             8             9            10 
      6  0.119458D+01
      7  0.000000D+00  0.223678D-01
      8  0.955784D-01  0.000000D+00  0.281994D+00
      9 -0.114982D+00  0.000000D+00 -0.127080D+00  0.152467D+00
     10  0.000000D+00  0.247695D-01  0.000000D+00  0.000000D+00  0.223678D-01
     11 -0.955784D-01  0.000000D+00 -0.211142D-01 -0.139078D-01  0.000000D+00
     12 -0.114982D+00  0.000000D+00  0.139078D-01  0.103788D-01  0.000000D+00
               11            12 
     11  0.281994D+00
     12  0.127080D+00  0.152467D+00
 Leave Link  703 at Tue Jul  9 11:12:38 2024, MaxMem=    97648640 cpu:             112.0 elap:              27.6
 (Enter /cluster/software/Gaussian/g16_B.01/l716.exe)
 FrcOut:
 IF    =        44 IFX   =        56 IFXYZ =        68
 IFFX  =        80 IFFFX =       158 IFLen =        12
 IFFLen=        78 IFFFLn=         0 IEDerv=       158
 LEDerv=       629 IFroze=       957 ICStrt=     59150
 Dipole        = 7.06666112D-16 1.57674953D-14-1.06005916D+00
 DipoleDeriv   =-3.93548223D-01-8.93790232D-16 2.30641220D-16
                -3.77205024D-15-5.35957535D-01-2.35030864D-15
                 1.94352702D-16-7.39282646D-15-1.14536724D+00
                 2.23518381D-01-6.34889508D-15-2.57164276D-15
                 1.50814832D-15 8.72961705D-01-3.90150586D-15
                -8.35733343D-15-4.51837962D-15 1.20933550D+00
                 8.50149206D-02 2.14535388D-15-1.38230604D-16
                -1.56364951D-15-1.68502085D-01 1.35301209D-01
                 1.45631331D-15 6.72564068D-02-3.19841296D-02
                 8.50149206D-02 5.09733143D-15 2.47923214D-15
                 3.82755143D-15-1.68502085D-01-1.35301209D-01
                 6.70666742D-15-6.72564068D-02-3.19841296D-02
 Polarizability= 1.07537648D+01 3.76483438D-14 1.49656986D+01
                 3.38100732D-14-3.67404394D-13 1.97804398D+01
 PolarDeriv    = 1.91208965D-12-4.44176916D-13 3.53860448D-13
                 3.58782887D+00-2.39391599D-14 4.01734095D-12
                -3.78870890D-14 5.74640983D-13-1.34682863D-12
                 3.56559293D-14 2.61030590D+00-2.96812529D-13
                 3.47142636D+00 3.44421506D-14-2.59835171D+00
                 1.50240784D-12 2.71683875D-13 1.12499648D+01
                -2.88286830D-12 1.91123307D-12-7.45597338D-13
                -2.62458667D+00-2.43738018D-13-7.50865146D-12
                 4.53893852D-13-6.55256827D-13 1.11430966D-11
                -8.16916608D-14 4.58886665D+00 3.49686764D-12
                -2.42047304D+00 6.77342271D-14 9.39863840D+00
                -1.33716788D-12 3.87343062D-12-5.27413356D+00
                 2.73923729D-13 1.21052523D+00 3.11759706D-14
                -4.81621102D-01 1.35720590D-13 1.71784545D-12
                 9.70235041D-01-1.68092834D-14 6.60434129D+00
                 3.58571803D-13-3.59958627D+00 2.01485470D+00
                -5.25476663D-01 9.69507594D-14-3.40014335D+00
                -1.97357513D-13 2.53245918D+00-2.98791563D+00
                 7.11219497D-13-1.21052523D+00 3.60560920D-13
                -4.81621102D-01 1.31956588D-13 1.77346506D-12
                -9.70235041D-01 1.04607414D-13-6.60434129D+00
                -3.12536071D-13-3.59958627D+00-2.01485470D+00
                -5.25476663D-01-1.99127137D-13-3.40014335D+00
                 3.92998393D-14-2.53245918D+00-2.98791563D+00
 HyperPolar    = 8.35205539D-14 6.65477668D-13 1.84383615D-13
                 1.73903398D-11-7.93689007D+00 4.83458450D-14
                -4.26275585D+01 1.07168231D-13 7.77787287D-12
                -3.95687853D+01
 Quadrupole    = 7.67425356D-02 2.07917756D-01-2.84660291D-01
                -1.46526268D-14-8.29683838D-15 1.90748337D-14
 -------------------------------------------------------------------
 Center     Atomic                   Forces (Hartrees/Bohr)
 Number     Number              X              Y              Z
 -------------------------------------------------------------------
      1        8          -0.000000000   -0.000000000   -0.000054384
      2        6           0.000000000    0.000000000    0.004888292
      3        1           0.000000000    0.004178274   -0.002416954
      4        1           0.000000000   -0.004178274   -0.002416954
 -------------------------------------------------------------------
 Cartesian Forces:  Max     0.004888292 RMS     0.002423799
 Force constants in Cartesian coordinates: 
                1             2             3             4             5 
      1  0.235704D-01
      2  0.000000D+00  0.868956D-01
      3  0.000000D+00  0.000000D+00  0.106035D+01
      4 -0.717841D-01  0.000000D+00  0.000000D+00  0.214272D+00
      5  0.000000D+00 -0.123332D+00  0.000000D+00  0.000000D+00  0.681527D+00
      6  0.000000D+00  0.000000D+00 -0.964619D+00  0.000000D+00  0.000000D+00
      7  0.241069D-01  0.000000D+00  0.000000D+00 -0.712441D-01  0.000000D+00
      8  0.000000D+00  0.182180D-01  0.175939D-01  0.000000D+00 -0.279097D+00
      9  0.000000D+00  0.441586D-01 -0.478636D-01  0.000000D+00  0.968293D-01
     10  0.241069D-01  0.000000D+00  0.000000D+00 -0.712441D-01  0.000000D+00
     11  0.000000D+00  0.182180D-01 -0.175939D-01  0.000000D+00 -0.279097D+00
     12  0.000000D+00 -0.441586D-01 -0.478636D-01  0.000000D+00 -0.968293D-01
                6             7             8             9            10 
      6  0.119458D+01
      7  0.000000D+00  0.223678D-01
      8  0.955784D-01  0.000000D+00  0.281994D+00
      9 -0.114982D+00  0.000000D+00 -0.127080D+00  0.152467D+00
     10  0.000000D+00  0.247695D-01  0.000000D+00  0.000000D+00  0.223678D-01
     11 -0.955784D-01  0.000000D+00 -0.211142D-01 -0.139078D-01  0.000000D+00
     12 -0.114982D+00  0.000000D+00  0.139078D-01  0.103788D-01  0.000000D+00
               11            12 
     11  0.281994D+00
     12  0.127080D+00  0.152467D+00
 Final forces over variables, Energy=-1.13922317D+02:
 -1.60880713D-07 1.78026753D-08 1.78026760D-08-3.41879592D-08
 -3.41879590D-08 6.83759182D-08 5.37191787D-16
 Leave Link  716 at Tue Jul  9 11:12:38 2024, MaxMem=    97648640 cpu:               0.4 elap:               0.0
 (Enter /cluster/software/Gaussian/g16_B.01/l106.exe)
 NDeriv=      6 NFrqRd=  0 NDerD0=      0 MskFDP=       0 MskDFD=       0 MskDF0=       0
 Re-enter D2Numr:  normal mode   5 step-down number 1
 Leave Link  106 at Tue Jul  9 11:12:38 2024, MaxMem=    97648640 cpu:               1.7 elap:               0.1
 (Enter /cluster/software/Gaussian/g16_B.01/l301.exe)
 Standard basis: CC-pVQZ (5D, 7F)
 Ernie: Thresh=  0.10000D-02 Tol=  0.10000D-05 Strict=F.
 Ernie:  6 primitive shells out of 90 were deleted.
   170 basis functions,   252 primitive gaussians,   210 cartesian basis functions
     8 alpha electrons        8 beta electrons
       nuclear repulsion energy        31.9546344155 Hartrees.
 IExCor=    0 DFT=F Ex=HF Corr=None ExCW=0 ScaHFX=  1.000000
 ScaDFX=  1.000000  1.000000  1.000000  1.000000 ScalE2=  1.000000  1.000000
 IRadAn=      5 IRanWt=     -1 IRanGd=            0 ICorTp=0 IEmpDi=  4
 NAtoms=    4 NActive=    4 NUniq=    4 SFac= 1.00D+00 NAtFMM=   60 NAOKFM=F Big=F
 Integral buffers will be    131072 words long.
 Raffenetti 1 integral format.
 Two-electron integral symmetry is turned off.
 Leave Link  301 at Tue Jul  9 11:12:38 2024, MaxMem=    97648640 cpu:               0.7 elap:               0.1
 (Enter /cluster/software/Gaussian/g16_B.01/l302.exe)
 NPDir=0 NMtPBC=     1 NCelOv=     1 NCel=       1 NClECP=     1 NCelD=      1
         NCelK=      1 NCelE2=     1 NClLst=     1 CellRange=     0.0.
 One-electron integrals computed using PRISM.
 PrsmSu:  requested number of processors reduced to:   4 ShMem   1 Linda.
 NBasis=   170 RedAO= T EigKep=  2.32D-04  NBF=   170
 NBsUse=   170 1.00D-06 EigRej= -1.00D+00 NBFU=   170
 Leave Link  302 at Tue Jul  9 11:12:38 2024, MaxMem=    97648640 cpu:               2.2 elap:               0.2
 (Enter /cluster/software/Gaussian/g16_B.01/l303.exe)
 DipDrv:  MaxL=1.
 Leave Link  303 at Tue Jul  9 11:12:38 2024, MaxMem=    97648640 cpu:               0.4 elap:               0.1
 (Enter /cluster/software/Gaussian/g16_B.01/l401.exe)
 Initial guess from the checkpoint file:  "inputFull_3q.chk"
 B after Tr=    -0.000000    0.000662   -0.000000
         Rot=    1.000000   -0.000158   -0.000000   -0.000000 Ang=  -0.02 deg.
 Guess basis will be translated and rotated to current coordinates.
 JPrj=2 DoOrth=T DoCkMO=T.
 Leave Link  401 at Tue Jul  9 11:12:39 2024, MaxMem=    97648640 cpu:               1.5 elap:               0.1
 (Enter /cluster/software/Gaussian/g16_B.01/l502.exe)
 Two-electron integral symmetry not used.
 Closed shell SCF:
 Using DIIS extrapolation, IDIIS=  1040.
 NGot=    97648640 LenX=    97555748 LenY=    97511207
 Requested convergence on RMS density matrix=1.00D-08 within 128 cycles.
 Requested convergence on MAX density matrix=1.00D-06.
 Requested convergence on             energy=1.00D-06.
 No special actions if energy rises.
 Fock matrices will be formed incrementally for  20 cycles.

 Cycle   1  Pass 1  IDiag  1:
 FoFJK:  IHMeth= 1 ICntrl=       0 DoSepK=F KAlg= 0 I1Cent=           0 FoldK=F
 IRaf= 990000000 NMat=       1 IRICut=       1 DoRegI=T DoRafI=F ISym2E= 0 IDoP0=0 IntGTp=1.
 FoFCou: FMM=F IPFlag=           0 FMFlag=      100000 FMFlg1=           0
         NFxFlg=           0 DoJE=F BraDBF=F KetDBF=F FulRan=T
         wScrn=  0.000000 ICntrl=         0 IOpCl=  0 I1Cent=           0 NGrid=           0
         NMat0=    1 NMatS0=      1 NMatT0=    0 NMatD0=    1 NMtDS0=    0 NMtDT0=    0
 Symmetry not used in FoFCou.
 E= -113.922290029985    
 DIIS: error= 6.51D-04 at cycle   1 NSaved=   1.
 NSaved= 1 IEnMin= 1 EnMin= -113.922290029985     IErMin= 1 ErrMin= 6.51D-04
 ErrMax= 6.51D-04  0.00D+00 EMaxC= 1.00D-01 BMatC= 3.35D-05 BMatP= 3.35D-05
 IDIUse=3 WtCom= 9.93D-01 WtEn= 6.51D-03
 Coeff-Com:  0.100D+01
 Coeff-En:   0.100D+01
 Coeff:      0.100D+01
 Gap=     2.582 Goal=   None    Shift=    0.000
 RMSDP=2.80D-05 MaxDP=9.15D-04              OVMax= 1.54D-03

 Cycle   2  Pass 1  IDiag  1:
 RMSU=  2.80D-05    CP:  1.00D+00
 E= -113.922313615301     Delta-E=       -0.000023585315 Rises=F Damp=F
 DIIS: error= 9.67D-05 at cycle   2 NSaved=   2.
 NSaved= 2 IEnMin= 2 EnMin= -113.922313615301     IErMin= 2 ErrMin= 9.67D-05
 ErrMax= 9.67D-05  0.00D+00 EMaxC= 1.00D-01 BMatC= 8.77D-07 BMatP= 3.35D-05
 IDIUse=1 WtCom= 1.00D+00 WtEn= 0.00D+00
 Coeff-Com: -0.801D-01 0.108D+01
 Coeff:     -0.801D-01 0.108D+01
 Gap=     0.556 Goal=   None    Shift=    0.000
 RMSDP=6.60D-06 MaxDP=2.55D-04 DE=-2.36D-05 OVMax= 5.61D-04

 Cycle   3  Pass 1  IDiag  1:
 RMSU=  4.35D-06    CP:  1.00D+00  1.18D+00
 E= -113.922315117218     Delta-E=       -0.000001501917 Rises=F Damp=F
 DIIS: error= 2.84D-05 at cycle   3 NSaved=   3.
 NSaved= 3 IEnMin= 3 EnMin= -113.922315117218     IErMin= 3 ErrMin= 2.84D-05
 ErrMax= 2.84D-05  0.00D+00 EMaxC= 1.00D-01 BMatC= 6.33D-08 BMatP= 8.77D-07
 IDIUse=1 WtCom= 1.00D+00 WtEn= 0.00D+00
 Coeff-Com:  0.741D-02-0.298D+00 0.129D+01
 Coeff:      0.741D-02-0.298D+00 0.129D+01
 Gap=     0.556 Goal=   None    Shift=    0.000
 RMSDP=3.00D-06 MaxDP=1.08D-04 DE=-1.50D-06 OVMax= 2.58D-04

 Cycle   4  Pass 1  IDiag  1:
 RMSU=  8.01D-07    CP:  1.00D+00  1.25D+00  1.49D+00
 E= -113.922315287934     Delta-E=       -0.000000170716 Rises=F Damp=F
 DIIS: error= 6.16D-06 at cycle   4 NSaved=   4.
 NSaved= 4 IEnMin= 4 EnMin= -113.922315287934     IErMin= 4 ErrMin= 6.16D-06
 ErrMax= 6.16D-06  0.00D+00 EMaxC= 1.00D-01 BMatC= 2.50D-09 BMatP= 6.33D-08
 IDIUse=1 WtCom= 1.00D+00 WtEn= 0.00D+00
 Coeff-Com:  0.303D-02-0.372D-01-0.488D-01 0.108D+01
 Coeff:      0.303D-02-0.372D-01-0.488D-01 0.108D+01
 Gap=     0.556 Goal=   None    Shift=    0.000
 RMSDP=6.91D-07 MaxDP=1.68D-05 DE=-1.71D-07 OVMax= 6.16D-05

 Cycle   5  Pass 1  IDiag  1:
 RMSU=  2.07D-07    CP:  1.00D+00  1.26D+00  1.60D+00  1.38D+00
 E= -113.922315295261     Delta-E=       -0.000000007327 Rises=F Damp=F
 DIIS: error= 1.34D-06 at cycle   5 NSaved=   5.
 NSaved= 5 IEnMin= 5 EnMin= -113.922315295261     IErMin= 5 ErrMin= 1.34D-06
 ErrMax= 1.34D-06  0.00D+00 EMaxC= 1.00D-01 BMatC= 1.70D-10 BMatP= 2.50D-09
 IDIUse=1 WtCom= 1.00D+00 WtEn= 0.00D+00
 Coeff-Com: -0.130D-03 0.929D-02-0.536D-01 0.161D-01 0.103D+01
 Coeff:     -0.130D-03 0.929D-02-0.536D-01 0.161D-01 0.103D+01
 Gap=     0.556 Goal=   None    Shift=    0.000
 RMSDP=1.84D-07 MaxDP=5.25D-06 DE=-7.33D-09 OVMax= 1.50D-05

 Cycle   6  Pass 1  IDiag  1:
 RMSU=  5.65D-08    CP:  1.00D+00  1.26D+00  1.63D+00  1.52D+00  1.45D+00
 E= -113.922315295643     Delta-E=       -0.000000000383 Rises=F Damp=F
 DIIS: error= 6.79D-07 at cycle   6 NSaved=   6.
 NSaved= 6 IEnMin= 6 EnMin= -113.922315295643     IErMin= 6 ErrMin= 6.79D-07
 ErrMax= 6.79D-07  0.00D+00 EMaxC= 1.00D-01 BMatC= 4.28D-11 BMatP= 1.70D-10
 IDIUse=1 WtCom= 1.00D+00 WtEn= 0.00D+00
 Coeff-Com: -0.349D-03 0.691D-02-0.138D-01-0.986D-01 0.347D+00 0.759D+00
 Coeff:     -0.349D-03 0.691D-02-0.138D-01-0.986D-01 0.347D+00 0.759D+00
 Gap=     0.556 Goal=   None    Shift=    0.000
 RMSDP=5.45D-08 MaxDP=1.64D-06 DE=-3.83D-10 OVMax= 3.86D-06

 Cycle   7  Pass 1  IDiag  1:
 RMSU=  1.74D-08    CP:  1.00D+00  1.26D+00  1.63D+00  1.55D+00  1.64D+00
                    CP:  1.01D+00
 E= -113.922315295691     Delta-E=       -0.000000000047 Rises=F Damp=F
 DIIS: error= 1.19D-07 at cycle   7 NSaved=   7.
 NSaved= 7 IEnMin= 7 EnMin= -113.922315295691     IErMin= 7 ErrMin= 1.19D-07
 ErrMax= 1.19D-07  0.00D+00 EMaxC= 1.00D-01 BMatC= 1.99D-12 BMatP= 4.28D-11
 IDIUse=1 WtCom= 1.00D+00 WtEn= 0.00D+00
 Coeff-Com:  0.111D-05-0.867D-03 0.572D-02 0.325D-02-0.133D+00-0.509D-02
 Coeff-Com:  0.113D+01
 Coeff:      0.111D-05-0.867D-03 0.572D-02 0.325D-02-0.133D+00-0.509D-02
 Coeff:      0.113D+01
 Gap=     0.556 Goal=   None    Shift=    0.000
 RMSDP=2.66D-08 MaxDP=8.52D-07 DE=-4.74D-11 OVMax= 1.52D-06

 Cycle   8  Pass 1  IDiag  1:
 RMSU=  4.47D-09    CP:  1.00D+00  1.26D+00  1.63D+00  1.56D+00  1.74D+00
                    CP:  1.21D+00  1.40D+00
 E= -113.922315295694     Delta-E=       -0.000000000003 Rises=F Damp=F
 DIIS: error= 1.52D-08 at cycle   8 NSaved=   8.
 NSaved= 8 IEnMin= 8 EnMin= -113.922315295694     IErMin= 8 ErrMin= 1.52D-08
 ErrMax= 1.52D-08  0.00D+00 EMaxC= 1.00D-01 BMatC= 3.81D-14 BMatP= 1.99D-12
 IDIUse=1 WtCom= 1.00D+00 WtEn= 0.00D+00
 Coeff-Com:  0.757D-05-0.934D-04-0.334D-03 0.321D-02 0.436D-03-0.230D-01
 Coeff-Com: -0.116D+00 0.114D+01
 Coeff:      0.757D-05-0.934D-04-0.334D-03 0.321D-02 0.436D-03-0.230D-01
 Coeff:     -0.116D+00 0.114D+01
 Gap=     0.556 Goal=   None    Shift=    0.000
 RMSDP=4.43D-09 MaxDP=1.64D-07 DE=-3.38D-12 OVMax= 2.26D-07

 SCF Done:  E(RHF) =  -113.922315296     A.U. after    8 cycles
            NFock=  8  Conv=0.44D-08     -V/T= 2.0000
 KE= 1.139211163694D+02 PE=-3.325791738954D+02 EE= 7.278110781474D+01
 Leave Link  502 at Tue Jul  9 11:12:46 2024, MaxMem=    97648640 cpu:             111.5 elap:               7.0
 (Enter /cluster/software/Gaussian/g16_B.01/l801.exe)
 Range of M.O.s used for correlation:     1   170
 NBasis=   170 NAE=     8 NBE=     8 NFC=     0 NFV=     0
 NROrb=    170 NOA=     8 NOB=     8 NVA=   162 NVB=   162

 **** Warning!!: The largest alpha MO coefficient is  0.16509649D+02

 Leave Link  801 at Tue Jul  9 11:12:46 2024, MaxMem=    97648640 cpu:               0.3 elap:               0.0
 (Enter /cluster/software/Gaussian/g16_B.01/l1002.exe)
 Minotr:  Closed shell wavefunction.
          Direct CPHF calculation.
          Differentiating once with respect to electric field.
                with respect to dipole field.
          Electric field/nuclear overlap derivatives assumed to be zero.
          Requested convergence is 1.0D-08 RMS, and 1.0D-07 maximum.
          Secondary convergence is 1.0D-12 RMS, and 1.0D-12 maximum.
          NewPWx=F KeepS1=T KeepF1=T KeepIn=T MapXYZ=F SortEE=F KeepMc=T.
 Two-electron integral symmetry not used.
          MDV=      97648640 using IRadAn=       4.
          Solving linear equations simultaneously, MaxMat=     384.
          There are     3 degrees of freedom in the 1st order CPHF.  IDoFFX=0 NUNeed=     3.
      3 vectors produced by pass  0 Test12= 4.32D-14 3.33D-08 XBig12= 5.15D+00 1.48D+00.
 AX will form     3 AO Fock derivatives at one time.
 FoFJK:  IHMeth= 1 ICntrl=       0 DoSepK=F KAlg= 0 I1Cent=           0 FoldK=F
 IRaf= 990000000 NMat=       3 IRICut=       1 DoRegI=T DoRafI=F ISym2E= 0 IDoP0=0 IntGTp=1.
 FoFCou: FMM=F IPFlag=           0 FMFlag=      100000 FMFlg1=           0
         NFxFlg=           0 DoJE=F BraDBF=F KetDBF=F FulRan=T
         wScrn=  0.000000 ICntrl=         0 IOpCl=  0 I1Cent=           0 NGrid=           0
         NMat0=    3 NMatS0=      3 NMatT0=    0 NMatD0=    3 NMtDS0=    0 NMtDT0=    0
 Symmetry not used in FoFCou.
      3 vectors produced by pass  1 Test12= 4.32D-14 3.33D-08 XBig12= 6.93D-01 2.30D-01.
      3 vectors produced by pass  2 Test12= 4.32D-14 3.33D-08 XBig12= 6.16D-02 9.43D-02.
      3 vectors produced by pass  3 Test12= 4.32D-14 3.33D-08 XBig12= 2.34D-03 1.88D-02.
      3 vectors produced by pass  4 Test12= 4.32D-14 3.33D-08 XBig12= 8.38D-05 3.50D-03.
      3 vectors produced by pass  5 Test12= 4.32D-14 3.33D-08 XBig12= 4.87D-06 6.43D-04.
      3 vectors produced by pass  6 Test12= 4.32D-14 3.33D-08 XBig12= 5.73D-08 6.01D-05.
      3 vectors produced by pass  7 Test12= 4.32D-14 3.33D-08 XBig12= 7.15D-10 7.73D-06.
      3 vectors produced by pass  8 Test12= 4.32D-14 3.33D-08 XBig12= 7.56D-12 7.58D-07.
      1 vectors produced by pass  9 Test12= 4.32D-14 3.33D-08 XBig12= 9.76D-14 9.54D-08.
 InvSVY:  IOpt=1 It=  1 EMax= 5.09D-16
 Solved reduced A of dimension    28 with     3 vectors.
 End of Minotr F.D. properties file   721 does not exist.
 End of Minotr F.D. properties file   722 does not exist.
 End of Minotr F.D. properties file   788 does not exist.
 Leave Link 1002 at Tue Jul  9 11:12:55 2024, MaxMem=    97648640 cpu:             146.3 elap:               9.2
 (Enter /cluster/software/Gaussian/g16_B.01/l1101.exe)
 Using compressed storage, NAtomX=     4.
 Will process      5 centers per pass.
 PrsmSu:  requested number of processors reduced to:   2 ShMem   1 Linda.
 PrsmSu:  requested number of processors reduced to:   9 ShMem   1 Linda.
 Leave Link 1101 at Tue Jul  9 11:12:55 2024, MaxMem=    97648640 cpu:               1.5 elap:               0.2
 (Enter /cluster/software/Gaussian/g16_B.01/l1102.exe)
 Symmetrizing basis deriv contribution to polar:
 IMax=3 JMax=2 DiffMx= 0.00D+00
 Leave Link 1102 at Tue Jul  9 11:12:55 2024, MaxMem=    97648640 cpu:               0.4 elap:               0.1
 (Enter /cluster/software/Gaussian/g16_B.01/l1110.exe)
 Forming Gx(P) for the SCF density, NAtomX=     4.
 Integral derivatives from FoFJK, PRISM(SPDF).
 Do as many integral derivatives as possible in FoFJK.
 G2DrvN: MDV=      97648192.
 G2DrvN: will do     3 centers at a time, making    2 passes.
 Estimated number of processors is:   10
 G2DrvN:  IPasSy=1 do centers    0 through    2.
 PxScal for G2LodP:  IOpCl= 0 ISclPx=1 IMOff=     1 NMtTot=     4 NTT=   14535 ScalPx= 2.48D+00
 Calling FoFCou, ICntrl=  3107 FMM=F I1Cent=   0 AccDes= 0.00D+00.
 FoFJK:  IHMeth= 1 ICntrl=    3107 DoSepK=F KAlg= 0 I1Cent=           0 FoldK=F
 IRaf=         0 NMat=       1 IRICut=       1 DoRegI=T DoRafI=F ISym2E= 0 IDoP0=0 IntGTp=1.
 FoFCou: FMM=F IPFlag=           0 FMFlag=      100000 FMFlg1=           0
         NFxFlg=           0 DoJE=F BraDBF=F KetDBF=F FulRan=T
         wScrn=  0.000000 ICntrl=      3107 IOpCl=  0 I1Cent=           0 NGrid=           0
         NMat0=    1 NMatS0=      1 NMatT0=    0 NMatD0=    4 NMtDS0=    3 NMtDT0=    0
 Symmetry not used in FoFCou.
 CoulSu:  requested number of processors reduced to:  10 ShMem   1 Linda.
 G2DrvN:  IPasSy=1 do centers    3 through    4.
 PxScal for G2LodP:  IOpCl= 0 ISclPx=1 IMOff=     1 NMtTot=     4 NTT=   14535 ScalPx= 2.48D+00
 Calling FoFCou, ICntrl=  3107 FMM=F I1Cent=   0 AccDes= 0.00D+00.
 CoulSu:  requested number of processors reduced to:  10 ShMem   1 Linda.
 End of G2Drv F.D. properties file   721 does not exist.
 End of G2Drv F.D. properties file   722 does not exist.
 End of G2Drv F.D. properties file   788 does not exist.
 Leave Link 1110 at Tue Jul  9 11:13:06 2024, MaxMem=    97648640 cpu:             113.0 elap:              11.2
 (Enter /cluster/software/Gaussian/g16_B.01/l1002.exe)
 Minotr:  Closed shell wavefunction.
          IDoAtm=1111
          Direct CPHF calculation.
          Differentiating once with respect to electric field.
                with respect to dipole field.
          Differentiating once with respect to nuclear coordinates.
          Requested convergence is 1.0D-08 RMS, and 1.0D-07 maximum.
          Secondary convergence is 1.0D-12 RMS, and 1.0D-12 maximum.
          NewPWx=T KeepS1=F KeepF1=F KeepIn=T MapXYZ=F SortEE=F KeepMc=T.
 Two-electron integral symmetry not used.
          MDV=      97648640 using IRadAn=       4.
          Solving linear equations simultaneously, MaxMat=     384.
 FoF2E skips out because all densities are zero.
 FoFJK:  IHMeth= 1 ICntrl=       0 DoSepK=F KAlg= 0 I1Cent=           0 FoldK=F
 IRaf= 990000000 NMat=       4 IRICut=       1 DoRegI=T DoRafI=F ISym2E= 0 IDoP0=0 IntGTp=1.
 FoFCou: FMM=F IPFlag=           0 FMFlag=      100000 FMFlg1=           0
         NFxFlg=           0 DoJE=F BraDBF=F KetDBF=F FulRan=T
         wScrn=  0.000000 ICntrl=         0 IOpCl=  0 I1Cent=           0 NGrid=           0
         NMat0=    4 NMatS0=      4 NMatT0=    0 NMatD0=    4 NMtDS0=    0 NMtDT0=    0
 Symmetry not used in FoFCou.
          There are    15 degrees of freedom in the 1st order CPHF.  IDoFFX=5 NUNeed=    15.
 Will reuse    3 saved solutions.
      9 vectors produced by pass  0 Test12= 8.64D-15 6.67D-09 XBig12= 6.15D-02 9.02D-02.
 AX will form     3 AO Fock derivatives at one time.
      9 vectors produced by pass  1 Test12= 8.64D-15 6.67D-09 XBig12= 1.03D-02 4.70D-02.
      9 vectors produced by pass  2 Test12= 8.64D-15 6.67D-09 XBig12= 2.24D-04 5.73D-03.
      9 vectors produced by pass  3 Test12= 8.64D-15 6.67D-09 XBig12= 2.19D-06 4.61D-04.
      9 vectors produced by pass  4 Test12= 8.64D-15 6.67D-09 XBig12= 2.43D-08 5.71D-05.
      9 vectors produced by pass  5 Test12= 8.64D-15 6.67D-09 XBig12= 2.18D-10 5.40D-06.
      9 vectors produced by pass  6 Test12= 8.64D-15 6.67D-09 XBig12= 2.77D-12 6.46D-07.
      5 vectors produced by pass  7 Test12= 8.64D-15 6.67D-09 XBig12= 1.86D-14 2.89D-08.
 InvSVY:  IOpt=1 It=  1 EMax= 6.66D-16
 Solved reduced A of dimension    68 with     9 vectors.
 FullF1:  Do perturbations      1 to       3.
 Isotropic polarizability for W=    0.000000       15.27 Bohr**3.
 FullF1:  Do perturbations      1 to       3.
 FullF1:  Do perturbations      4 to       6.
 End of Minotr F.D. properties file   721 does not exist.
 End of Minotr F.D. properties file   722 does not exist.
 End of Minotr F.D. properties file   788 does not exist.
 Leave Link 1002 at Tue Jul  9 11:13:36 2024, MaxMem=    97648640 cpu:             472.3 elap:              29.7
 (Enter /cluster/software/Gaussian/g16_B.01/l601.exe)
 Copying SCF densities to generalized density rwf, IOpCl= 0 IROHF=0.

 **********************************************************************

            Population analysis using the SCF Density.

 **********************************************************************

 Alpha  occ. eigenvalues --  -20.57226 -11.33173  -1.42421  -0.86848  -0.70271
 Alpha  occ. eigenvalues --   -0.65995  -0.54896  -0.43961
 Alpha virt. eigenvalues --    0.11675   0.12254   0.17619   0.21810   0.33658
 Alpha virt. eigenvalues --    0.34451   0.34510   0.46798   0.47935   0.54093
 Alpha virt. eigenvalues --    0.54378   0.62955   0.65270   0.67605   0.74497
 Alpha virt. eigenvalues --    0.74994   0.81711   0.87009   0.90426   0.95847
 Alpha virt. eigenvalues --    1.02604   1.07911   1.12105   1.14199   1.21817
 Alpha virt. eigenvalues --    1.33991   1.46424   1.47104   1.50881   1.54555
 Alpha virt. eigenvalues --    1.63118   1.63184   1.73482   1.78680   1.87723
 Alpha virt. eigenvalues --    1.92408   2.02339   2.04144   2.04846   2.07388
 Alpha virt. eigenvalues --    2.10716   2.13875   2.29000   2.36611   2.37754
 Alpha virt. eigenvalues --    2.38176   2.48052   2.58156   2.61868   2.66081
 Alpha virt. eigenvalues --    2.67152   2.78950   2.81347   2.87624   2.90705
 Alpha virt. eigenvalues --    3.09753   3.10055   3.20086   3.21995   3.42777
 Alpha virt. eigenvalues --    3.48828   3.58090   3.62584   3.67673   3.70647
 Alpha virt. eigenvalues --    3.72521   3.75012   3.89483   4.05000   4.05896
 Alpha virt. eigenvalues --    4.13193   4.33361   4.38217   4.39994   4.58170
 Alpha virt. eigenvalues --    4.61755   4.70685   4.73270   5.05646   5.07238
 Alpha virt. eigenvalues --    5.38033   5.42119   5.50970   5.53914   5.67923
 Alpha virt. eigenvalues --    5.72662   5.84261   6.01662   6.03858   6.10872
 Alpha virt. eigenvalues --    6.20295   6.26228   6.26916   6.28019   6.34140
 Alpha virt. eigenvalues --    6.36527   6.41242   6.49822   6.63461   6.74834
 Alpha virt. eigenvalues --    6.76495   6.78585   6.92718   7.01944   7.22480
 Alpha virt. eigenvalues --    7.47401   7.58659   7.71449   7.71683   7.75309
 Alpha virt. eigenvalues --    7.81752   7.85123   7.87394   7.96900   8.04514
 Alpha virt. eigenvalues --    8.06934   8.28113   8.29965   8.46798   8.50155
 Alpha virt. eigenvalues --    8.53951   8.59388   8.77050   8.87582   8.89621
 Alpha virt. eigenvalues --    8.98330   9.29846   9.35270   9.37629   9.45167
 Alpha virt. eigenvalues --    9.59784   9.67129   9.93397  10.15108  10.28682
 Alpha virt. eigenvalues --   10.29500  10.37369  10.57301  10.63450  10.72766
 Alpha virt. eigenvalues --   10.74894  10.95082  11.12184  11.26020  11.42223
 Alpha virt. eigenvalues --   11.59861  11.61571  11.62219  11.84665  11.99978
 Alpha virt. eigenvalues --   12.23595  12.37547  12.59639  12.76616  12.91892
 Alpha virt. eigenvalues --   12.99068  13.37322  13.93090  14.47280  14.68577
 Alpha virt. eigenvalues --   25.95048  42.81377
          Condensed to atoms (all electrons):
               1          2          3          4
     1  O    7.842595   0.684742  -0.081214  -0.080599
     2  C    0.684742   4.198881   0.397360   0.390785
     3  H   -0.081214   0.397360   0.817560  -0.149159
     4  H   -0.080599   0.390785  -0.149159   0.817131
 Mulliken charges:
               1
     1  O   -0.365524
     2  C    0.328231
     3  H    0.015452
     4  H    0.021842
 Sum of Mulliken charges =  -0.00000
 Mulliken charges with hydrogens summed into heavy atoms:
               1
     1  O   -0.365524
     2  C    0.365524
 APT charges:
               1
     1  O   -0.694300
     2  C    0.775410
     3  H   -0.042637
     4  H   -0.038473
 Sum of APT charges =  -0.00000
 APT charges with hydrogens summed into heavy atoms:
               1
     1  O   -0.694300
     2  C    0.694300
 Electronic spatial extent (au):  <R**2>=             58.9481
 Charge=             -0.0000 electrons
 Dipole moment (field-independent basis, Debye):
    X=              0.0000    Y=             -0.0157    Z=             -2.6819  Tot=              2.6819
 Quadrupole moment (field-independent basis, Debye-Ang):
   XX=            -11.5950   YY=            -11.4105   ZZ=            -12.0839
   XY=             -0.0000   XZ=             -0.0000   YZ=              0.0158
 Traceless Quadrupole moment (field-independent basis, Debye-Ang):
   XX=              0.1014   YY=              0.2860   ZZ=             -0.3874
   XY=             -0.0000   XZ=             -0.0000   YZ=              0.0158
 Octapole moment (field-independent basis, Debye-Ang**2):
  XXX=              0.0000  YYY=             -0.0516  ZZZ=              0.2381  XYY=              0.0000
  XXY=             -0.0256  XXZ=              0.4551  XZZ=              0.0000  YZZ=             -0.0311
  YYZ=             -0.5956  XYZ=             -0.0000
 Hexadecapole moment (field-independent basis, Debye-Ang**3):
 XXXX=            -10.0957 YYYY=            -17.3108 ZZZZ=            -43.4341 XXXY=             -0.0000
 XXXZ=             -0.0000 YYYX=             -0.0000 YYYZ=              0.0745 ZZZX=             -0.0000
 ZZZY=              0.1031 XXYY=             -4.9165 XXZZ=             -8.8516 YYZZ=             -9.6972
 XXYZ=              0.0374 YYXZ=              0.0000 ZZXY=             -0.0000
 N-N= 3.195463441555D+01 E-N=-3.325791745890D+02  KE= 1.139211163694D+02
  Exact polarizability:  10.780   0.000  15.173   0.000  -0.121  19.861
 Approx polarizability:  10.437   0.000  12.369   0.000  -0.075  17.349
 No NMR shielding tensors so no spin-rotation constants.
 Leave Link  601 at Tue Jul  9 11:13:36 2024, MaxMem=    97648640 cpu:               2.6 elap:               0.2
 (Enter /cluster/software/Gaussian/g16_B.01/l701.exe)
 SCFChk:  SCF convergence  4.43D-09 required  1.00D-08
 ... and contract with generalized density number  0.
 Compute integral second derivatives.
 Entering OneElI...
 Calculate overlap and kinetic energy integrals
    NBasis = 210  MinDer = 2  MaxDer = 2
 Requested accuracy = 0.1000D-12
 PrsmSu:  requested number of processors reduced to:   1 ShMem   1 Linda.
 PrmmSu-InSpLW:  IPartL=    0 NPrtUS=    1 NPrtUL=    1 DoSpLW=F IThBeg=    0 IThEnd=    0 NThAct=    1.
 PrSmSu:  IncTry=   512 NBBP=           1275 NTPThr=   100 NPartT=    1 Incr=          12 LDynOK=F GPUOK=F.
 PrsmSu:  NPrtUS=   1 ThrOK=F IAlg=2 LenDen=           0 ISkipM=0 DoSpLW=F IThBeg=    0 IThEnd=    0.
 Prism:   IPart=     0 DynPar=F LinDyn=F Incr=          12.
 PRISM was handed    97371836 working-precision words and  1275 shell-pairs
 IPart=  0 NShTot=        1275 NBatch=          77 AvBLen=        16.6
 PrSmSu:  NxtVal=             13.
 Entering OneElI...
 Calculate potential energy integrals
    NBasis = 210  MinDer = 2  MaxDer = 2
 Requested accuracy = 0.1000D-12
 PrsmSu:  requested number of processors reduced to:   4 ShMem   1 Linda.
 PrmmSu-InSpLW:  IPartL=    0 NPrtUS=    4 NPrtUL=    1 DoSpLW=F IThBeg=    0 IThEnd=    3 NThAct=    4.
 PrSmSu:  IncTry=   512 NBBP=           5092 NTPThr=   100 NPartT=    4 Incr=          12 LDynOK=F GPUOK=F.
 PrsmSu:  NPrtUS=   4 ThrOK=T IAlg=2 LenDen=           0 ISkipM=0 DoSpLW=F IThBeg=    0 IThEnd=    3.
 Prism:   IPart=     0 DynPar=F LinDyn=F Incr=          12.
 PRISM was handed    24334029 working-precision words and  1273 shell-pairs
 PRISM was handed    24334029 working-precision words and  1273 shell-pairs
 PRISM was handed    24334029 working-precision words and  1273 shell-pairs
 PRISM was handed    24334029 working-precision words and  1273 shell-pairs
 IPart=  2 NShTot=        1236 NBatch=         309 AvBLen=         4.0
 IPart=  0 NShTot=        1332 NBatch=         333 AvBLen=         4.0
 IPart=  3 NShTot=        1224 NBatch=         306 AvBLen=         4.0
 IPart=  1 NShTot=        1300 NBatch=         325 AvBLen=         4.0
 PrSmSu:  NxtVal=             49.
 Polarizability after L701:
                1             2             3 
      1  0.107803D+02
      2  0.000000D+00  0.151728D+02
      3  0.000000D+00 -0.120751D+00  0.198606D+02
 Dipole Derivatives after L701:
                 1             2             3             4             5 
      1  -0.391389D+00  0.000000D+00  0.000000D+00  0.222230D+00  0.000000D+00
      2   0.000000D+00 -0.536494D+00  0.130795D-01  0.000000D+00  0.882361D+00
      3   0.000000D+00  0.343507D-02 -0.115502D+01  0.000000D+00 -0.129003D-01
                 6             7             8             9            10 
      1   0.000000D+00  0.824099D-01  0.000000D+00  0.000000D+00  0.867484D-01
      2  -0.229850D-01  0.000000D+00 -0.174781D+00  0.736682D-01  0.000000D+00
      3   0.122164D+01  0.000000D+00  0.141145D+00 -0.355392D-01  0.000000D+00
                11            12 
      1   0.000000D+00  0.000000D+00
      2  -0.171086D+00 -0.637626D-01
      3  -0.131680D+00 -0.310807D-01
 Hessian after L701:
                1             2             3             4             5 
      1  0.130811D+02
      2  0.000000D+00  0.106044D+02
      3  0.000000D+00 -0.180262D-01 -0.881450D+00
      4 -0.132179D+02  0.000000D+00  0.000000D+00  0.180333D+02
      5  0.000000D+00 -0.117300D+02  0.278082D-02  0.000000D+00  0.142967D+02
      6  0.000000D+00 -0.157807D-03  0.140051D+01  0.000000D+00  0.150697D-01
      7  0.691198D-01  0.000000D+00  0.000000D+00 -0.238859D+01  0.000000D+00
      8  0.000000D+00  0.555698D+00 -0.268920D+00  0.000000D+00 -0.124166D+01
      9  0.000000D+00 -0.308875D+00 -0.258315D+00  0.000000D+00 -0.910811D+00
     10  0.676252D-01  0.000000D+00  0.000000D+00 -0.242680D+01  0.000000D+00
     11  0.000000D+00  0.569912D+00  0.284166D+00  0.000000D+00 -0.132498D+01
     12  0.000000D+00  0.327059D+00 -0.260744D+00  0.000000D+00  0.892960D+00
                6             7             8             9            10 
      6  0.241262D+01
      7  0.000000D+00  0.203425D+01
      8 -0.803214D+00  0.000000D+00  0.122761D+01
      9 -0.188294D+01  0.000000D+00  0.114191D+01  0.182614D+01
     10  0.000000D+00  0.285220D+00  0.000000D+00  0.000000D+00  0.207396D+01
     11  0.788302D+00  0.000000D+00 -0.541653D+00  0.777726D-01  0.000000D+00
     12 -0.193019D+01  0.000000D+00 -0.697789D-01  0.315120D+00  0.000000D+00
               11            12 
     11  0.129672D+01
     12 -0.115024D+01  0.187581D+01
 Leave Link  701 at Tue Jul  9 11:13:37 2024, MaxMem=    97648640 cpu:               1.0 elap:               0.3
 (Enter /cluster/software/Gaussian/g16_B.01/l702.exe)
 L702 exits ... SP integral derivatives will be done elsewhere.
 Leave Link  702 at Tue Jul  9 11:13:37 2024, MaxMem=    97648640 cpu:               0.3 elap:               0.0
 (Enter /cluster/software/Gaussian/g16_B.01/l703.exe)
 Integral derivatives from FoFJK, PRISM(SPDF).
 Compute integral second derivatives, UseDBF=F ICtDFT=           0.
 ICntrl=    100127.
 Calling FoFJK, ICntrl=    100127 FMM=F ISym2X=0 I1Cent= 0 IOpClX= 0 NMat=1 NMatS=1 NMatT=0.
 FoFJK:  IHMeth= 1 ICntrl=  100127 DoSepK=F KAlg= 0 I1Cent=           0 FoldK=F
 IRaf=         0 NMat=       1 IRICut=       1 DoRegI=T DoRafI=F ISym2E= 0 IDoP0=0 IntGTp=1.
 FoFCou: FMM=F IPFlag=           0 FMFlag=      100000 FMFlg1=         800
         NFxFlg=           0 DoJE=F BraDBF=F KetDBF=F FulRan=T
         wScrn=  0.000000 ICntrl=    100127 IOpCl=  0 I1Cent=           0 NGrid=           0
         NMat0=    1 NMatS0=      1 NMatT0=    0 NMatD0=    1 NMtDS0=    0 NMtDT0=    0
 Symmetry not used in FoFCou.
 FoFCou:  KetSym=F NOpSet=  1 NOpAb=1 NOp=  1.
 FoFCou:  CnvScl= 1.00D+00 Thresh= 1.00D-12 IAcrcy=      10.
 PrismS was handed    97482766 working-precision words and  1275 shell-pairs
 FoFCou: LinMIO=F DoNuc=F BraDBF=F KetDBF=F HaveP=T PDBF=F HaveZ=T HaveW=F
         NIJTC =      15 NIJTAt=       0 NIJTCD=       0 NIJTT =      15
         IJTBeg=       1 IJTEnd=      15 KLTBeg=       1 KLTEnd=      15
         IPTBeg=       1 IPTEnd=      15 IPTBCv=       1 IPTECv=      15
         IZTBeg=       1 IZTEnd=      15 IZTBCv=       1 IZTECv=      15
         IWTBeg=      16 IWTEnd=      15 IWTBCv=      16 IWTECv=      15
         INTBeg=       1 INTEnd=       0 IFTBCv=       1 IFTECv=      15
 NCel replicated for PrismC:     1
 CoulSu:  requested number of processors reduced to:   4 ShMem   1 Linda.
 CoulSu-InSpLW:  IPartL=    0 NPrtUS=    4 NPrtUL=    1 DoSpLW=F IThBeg=    0 IThEnd=    3 NThAct=    4.
 CoulSu:  IncTry=  1024 NBBP=         813450 NTPThr=   100 NPartT=    4 Incr=        1024 LDynOK=F GPUOK=F.
 CoulSu:  NPrtUS=   4 ThrOK=T IAlg=2 LenDen=           0 LWGrdD=           0 DoCopy=F ISkipM=0
          DoSpLW=F IThBeg=    0 IThEnd=    3.
 Enter PrismC:  IPart=  0 JobTyp=22 DoJE=F Cont=F.
 PrismC:  IPart=     0 DynPar=T LinDyn=F Incr=        1024 UseFst=F UseS4=T ISplat=2.
 PrismC was handed    24349292 working-precision words and  1275 shell-pairs
 Enter PrismC:  IPart=  3 JobTyp=22 DoJE=F Cont=F.
 Enter PrismC:  IPart=  2 JobTyp=22 DoJE=F Cont=F.
 Enter PrismC:  IPart=  1 JobTyp=22 DoJE=F Cont=F.
 PrismC:  IPart=     3 DynPar=T LinDyn=F Incr=        1024 UseFst=F UseS4=T ISplat=2.
 PrismC was handed    24349292 working-precision words and  1275 shell-pairs
 PrismC:  IPart=     2 DynPar=T LinDyn=F Incr=        1024 UseFst=F UseS4=T ISplat=2.
 PrismC was handed    24349292 working-precision words and  1275 shell-pairs
 PrismC:  IPart=     1 DynPar=T LinDyn=F Incr=        1024 UseFst=F UseS4=T ISplat=2.
 PrismC was handed    24349292 working-precision words and  1275 shell-pairs
 IPart=  1 NShTot=      201403 NShNF=      201403 NShFF=           0 MinMC=       3
           NShCPU=      201403 NBCPU=        7927 AvBCPU=        25.4
           NShGPU=           0 NBGPU=           0 AvBGPU=         0.0
 IPart=  2 NShTot=      179871 NShNF=      179871 NShFF=           0 MinMC=       3
           NShCPU=      179871 NBCPU=        6997 AvBCPU=        25.7
           NShGPU=           0 NBGPU=           0 AvBGPU=         0.0
 IPart=  3 NShTot=      194962 NShNF=      194962 NShFF=           0 MinMC=       3
           NShCPU=      194962 NBCPU=        6941 AvBCPU=        28.1
           NShGPU=           0 NBGPU=           0 AvBGPU=         0.0
 IPart=  0 NShTot=      222371 NShNF=      222371 NShFF=           0 MinMC=       3
           NShCPU=      222371 NBCPU=        8133 AvBCPU=        27.3
           NShGPU=           0 NBGPU=           0 AvBGPU=         0.0
 CoulSu:  NxtVal=         861185 LenVP=       24349293 MinMC=       3.
 Polarizability after L703:
                1             2             3 
      1  0.107803D+02
      2  0.000000D+00  0.151728D+02
      3  0.000000D+00 -0.120751D+00  0.198606D+02
 Dipole Derivatives after L703:
                 1             2             3             4             5 
      1  -0.391389D+00  0.000000D+00  0.000000D+00  0.222230D+00  0.000000D+00
      2   0.000000D+00 -0.536494D+00  0.130795D-01  0.000000D+00  0.882361D+00
      3   0.000000D+00  0.343507D-02 -0.115502D+01  0.000000D+00 -0.129003D-01
                 6             7             8             9            10 
      1   0.000000D+00  0.824099D-01  0.000000D+00  0.000000D+00  0.867484D-01
      2  -0.229850D-01  0.000000D+00 -0.174781D+00  0.736682D-01  0.000000D+00
      3   0.122164D+01  0.000000D+00  0.141145D+00 -0.355392D-01  0.000000D+00
                11            12 
      1   0.000000D+00  0.000000D+00
      2  -0.171086D+00 -0.637626D-01
      3  -0.131680D+00 -0.310807D-01
 Hessian after L703:
                1             2             3             4             5 
      1  0.235483D-01
      2  0.000000D+00  0.867813D-01
      3  0.000000D+00  0.118770D-02  0.106173D+01
      4 -0.713990D-01  0.000000D+00  0.000000D+00  0.216367D+00
      5  0.000000D+00 -0.122670D+00 -0.268152D-02  0.000000D+00  0.660392D+00
      6  0.000000D+00 -0.776994D-03 -0.966178D+00  0.000000D+00  0.175940D-01
      7  0.237490D-01  0.000000D+00  0.000000D+00 -0.742492D-01  0.000000D+00
      8  0.000000D+00  0.177151D-01  0.186879D-01  0.000000D+00 -0.258726D+00
      9  0.000000D+00  0.436744D-01 -0.477585D-01  0.000000D+00  0.826878D-01
     10  0.241016D-01  0.000000D+00  0.000000D+00 -0.707186D-01  0.000000D+00
     11  0.000000D+00  0.181732D-01 -0.171941D-01  0.000000D+00 -0.278997D+00
     12  0.000000D+00 -0.440851D-01 -0.477982D-01  0.000000D+00 -0.976002D-01
                6             7             8             9            10 
      6  0.119003D+01
      7  0.000000D+00  0.261897D-01
      8  0.804153D-01  0.000000D+00  0.261898D+00
      9 -0.108526D+00  0.000000D+00 -0.113080D+00  0.146128D+00
     10  0.000000D+00  0.243104D-01  0.000000D+00  0.000000D+00  0.223066D-01
     11 -0.972323D-01  0.000000D+00 -0.208870D-01 -0.132826D-01  0.000000D+00
     12 -0.115324D+00  0.000000D+00  0.139763D-01  0.101565D-01  0.000000D+00
               11            12 
     11  0.281711D+00
     12  0.127709D+00  0.152966D+00
 Leave Link  703 at Tue Jul  9 11:14:05 2024, MaxMem=    97648640 cpu:             117.0 elap:              28.9
 (Enter /cluster/software/Gaussian/g16_B.01/l716.exe)
 FrcOut:
 IF    =        44 IFX   =        56 IFXYZ =        68
 IFFX  =        80 IFFFX =       158 IFLen =        12
 IFFLen=        78 IFFFLn=         0 IEDerv=       158
 LEDerv=       629 IFroze=       957 ICStrt=     59150
 Dipole        = 3.27056196D-15-6.19213332D-03-1.05513382D+00
 DipoleDeriv   =-3.91388626D-01-3.36417120D-15 2.25838385D-16
                -5.50182170D-16-5.36493848D-01 3.43506667D-03
                 2.98267393D-15 1.30794612D-02-1.15501886D+00
                 2.22230320D-01 2.58628036D-15-4.12636848D-15
                -7.08506225D-15 8.82361264D-01-1.29003030D-02
                -1.08929338D-14-2.29850385D-02 1.22163870D+00
                 8.24099065D-02-4.97056137D-16 2.55392913D-15
                 1.08618006D-15-1.74781324D-01 1.41145068D-01
                 9.23324923D-16 7.36682008D-02-3.55391538D-02
                 8.67483988D-02 1.27494698D-15 1.34660096D-15
                 6.54906436D-15-1.71086093D-01-1.31679832D-01
                 6.98693497D-15-6.37626235D-02-3.10806889D-02
 Polarizability= 1.07802903D+01 3.96023228D-14 1.51728000D+01
                 3.16243928D-14-1.20751040D-01 1.98605750D+01
 PolarDeriv    = 4.06170935D-13-1.41583370D-02 1.10945441D-13
                 3.58298570D+00-8.18832452D-14 1.21151960D-12
                 8.59833989D-03 7.94343077D-14-1.47667896D-02
                 4.50449269D-14 2.59562834D+00 2.04865788D-02
                 3.45170440D+00 8.04190964D-14-2.73585646D+00
                 2.38638407D-13 7.34055169D-02 1.12237487D+01
                -1.42646532D-13-5.22475736D-02 1.48415998D-14
                -2.56435018D+00-3.94790235D-13-1.80393678D-12
                -5.09899170D-02-8.83285995D-14-1.53972106D-01
                -4.27147600D-13 4.70649888D+00-1.23390972D-01
                -2.39035919D+00-3.38109030D-13 9.65823184D+00
                 3.89665316D-14-1.97750949D-01-5.17029044D+00
                -3.68620525D-13 1.28726278D+00-1.50935826D-14
                -5.42014070D-01 2.34111071D-13 2.61166517D-13
                 1.00068559D+00-3.48806079D-13 6.84365263D+00
                 1.76997685D-13-3.69778670D+00 2.07749618D+00
                -5.40161341D-01 1.20171047D-13-3.45384821D+00
                -3.29828847D-13 2.65197023D+00-3.10671612D+00
                 1.01938049D-13-1.22085687D+00-1.10693458D-13
                -4.76621443D-01 2.42562408D-13 3.31250656D-13
                -9.58294017D-01 3.56121335D-13-6.67491374D+00
                 2.05104988D-13-3.60434052D+00-1.97459179D+00
                -5.21183871D-01 1.37518887D-13-3.46852716D+00
                 5.06448725D-14-2.52762480D+00-2.94674211D+00
 HyperPolar    =-6.99618242D-13 1.18725809D-02 2.44771669D-14
                 1.14822222D+00-7.85596254D+00 4.67562478D-14
                -4.39276602D+01-1.88003453D-13 9.00055909D-01
                -3.97629465D+01
 Quadrupole    = 7.54132045D-02 2.12622508D-01-2.88035713D-01
                -1.36174157D-14-7.27537709D-15 1.17399058D-02
 -------------------------------------------------------------------
 Center     Atomic                   Forces (Hartrees/Bohr)
 Number     Number              X              Y              Z
 -------------------------------------------------------------------
      1        8          -0.000000000   -0.000021887   -0.000010404
      2        6           0.000000000    0.008118695    0.000128215
      3        1           0.000000000   -0.003963268    0.002456458
      4        1           0.000000000   -0.004133541   -0.002574269
 -------------------------------------------------------------------
 Cartesian Forces:  Max     0.008118695 RMS     0.003046650
 Force constants in Cartesian coordinates: 
                1             2             3             4             5 
      1  0.235483D-01
      2  0.000000D+00  0.867813D-01
      3  0.000000D+00  0.118770D-02  0.106173D+01
      4 -0.713990D-01  0.000000D+00  0.000000D+00  0.216367D+00
      5  0.000000D+00 -0.122670D+00 -0.268152D-02  0.000000D+00  0.660392D+00
      6  0.000000D+00 -0.776994D-03 -0.966178D+00  0.000000D+00  0.175940D-01
      7  0.237490D-01  0.000000D+00  0.000000D+00 -0.742492D-01  0.000000D+00
      8  0.000000D+00  0.177151D-01  0.186879D-01  0.000000D+00 -0.258726D+00
      9  0.000000D+00  0.436744D-01 -0.477585D-01  0.000000D+00  0.826878D-01
     10  0.241016D-01  0.000000D+00  0.000000D+00 -0.707186D-01  0.000000D+00
     11  0.000000D+00  0.181732D-01 -0.171941D-01  0.000000D+00 -0.278997D+00
     12  0.000000D+00 -0.440851D-01 -0.477982D-01  0.000000D+00 -0.976002D-01
                6             7             8             9            10 
      6  0.119003D+01
      7  0.000000D+00  0.261897D-01
      8  0.804153D-01  0.000000D+00  0.261898D+00
      9 -0.108526D+00  0.000000D+00 -0.113080D+00  0.146128D+00
     10  0.000000D+00  0.243104D-01  0.000000D+00  0.000000D+00  0.223066D-01
     11 -0.972323D-01  0.000000D+00 -0.208870D-01 -0.132826D-01  0.000000D+00
     12 -0.115324D+00  0.000000D+00  0.139763D-01  0.101565D-01  0.000000D+00
               11            12 
     11  0.281711D+00
     12  0.127709D+00  0.152966D+00
 Final forces over variables, Energy=-1.13922315D+02:
 -1.60880713D-07 1.78026753D-08 1.78026760D-08-3.41879592D-08
 -3.41879590D-08 6.83759182D-08 5.37191787D-16
 Leave Link  716 at Tue Jul  9 11:14:06 2024, MaxMem=    97648640 cpu:               0.4 elap:               0.0
 (Enter /cluster/software/Gaussian/g16_B.01/l106.exe)
 NDeriv=      6 NFrqRd=  0 NDerD0=      0 MskFDP=       0 MskDFD=       0 MskDF0=       0
 Re-enter D2Numr:  normal mode   6 step-up   number 1
 Leave Link  106 at Tue Jul  9 11:14:06 2024, MaxMem=    97648640 cpu:               1.6 elap:               0.1
 (Enter /cluster/software/Gaussian/g16_B.01/l301.exe)
 Standard basis: CC-pVQZ (5D, 7F)
 Ernie: Thresh=  0.10000D-02 Tol=  0.10000D-05 Strict=F.
 Ernie:  6 primitive shells out of 90 were deleted.
   170 basis functions,   252 primitive gaussians,   210 cartesian basis functions
     8 alpha electrons        8 beta electrons
       nuclear repulsion energy        31.9546344155 Hartrees.
 IExCor=    0 DFT=F Ex=HF Corr=None ExCW=0 ScaHFX=  1.000000
 ScaDFX=  1.000000  1.000000  1.000000  1.000000 ScalE2=  1.000000  1.000000
 IRadAn=      5 IRanWt=     -1 IRanGd=            0 ICorTp=0 IEmpDi=  4
 NAtoms=    4 NActive=    4 NUniq=    4 SFac= 1.00D+00 NAtFMM=   60 NAOKFM=F Big=F
 Integral buffers will be    131072 words long.
 Raffenetti 1 integral format.
 Two-electron integral symmetry is turned off.
 Leave Link  301 at Tue Jul  9 11:14:06 2024, MaxMem=    97648640 cpu:               0.7 elap:               0.1
 (Enter /cluster/software/Gaussian/g16_B.01/l302.exe)
 NPDir=0 NMtPBC=     1 NCelOv=     1 NCel=       1 NClECP=     1 NCelD=      1
         NCelK=      1 NCelE2=     1 NClLst=     1 CellRange=     0.0.
 One-electron integrals computed using PRISM.
 PrsmSu:  requested number of processors reduced to:   4 ShMem   1 Linda.
 NBasis=   170 RedAO= T EigKep=  2.32D-04  NBF=   170
 NBsUse=   170 1.00D-06 EigRej= -1.00D+00 NBFU=   170
 Leave Link  302 at Tue Jul  9 11:14:06 2024, MaxMem=    97648640 cpu:               2.2 elap:               0.2
 (Enter /cluster/software/Gaussian/g16_B.01/l303.exe)
 DipDrv:  MaxL=1.
 Leave Link  303 at Tue Jul  9 11:14:06 2024, MaxMem=    97648640 cpu:               0.4 elap:               0.1
 (Enter /cluster/software/Gaussian/g16_B.01/l401.exe)
 Initial guess from the checkpoint file:  "inputFull_3q.chk"
 B after Tr=     0.000000   -0.000662    0.000000
         Rot=    1.000000    0.000158    0.000000    0.000000 Ang=   0.02 deg.
 Guess basis will be translated and rotated to current coordinates.
 JPrj=2 DoOrth=T DoCkMO=T.
 Leave Link  401 at Tue Jul  9 11:14:06 2024, MaxMem=    97648640 cpu:               1.5 elap:               0.1
 (Enter /cluster/software/Gaussian/g16_B.01/l502.exe)
 Two-electron integral symmetry not used.
 Closed shell SCF:
 Using DIIS extrapolation, IDIIS=  1040.
 NGot=    97648640 LenX=    97555748 LenY=    97511207
 Requested convergence on RMS density matrix=1.00D-08 within 128 cycles.
 Requested convergence on MAX density matrix=1.00D-06.
 Requested convergence on             energy=1.00D-06.
 No special actions if energy rises.
 Fock matrices will be formed incrementally for  20 cycles.

 Cycle   1  Pass 1  IDiag  1:
 FoFJK:  IHMeth= 1 ICntrl=       0 DoSepK=F KAlg= 0 I1Cent=           0 FoldK=F
 IRaf= 990000000 NMat=       1 IRICut=       1 DoRegI=T DoRafI=F ISym2E= 0 IDoP0=0 IntGTp=1.
 FoFCou: FMM=F IPFlag=           0 FMFlag=      100000 FMFlg1=           0
         NFxFlg=           0 DoJE=F BraDBF=F KetDBF=F FulRan=T
         wScrn=  0.000000 ICntrl=         0 IOpCl=  0 I1Cent=           0 NGrid=           0
         NMat0=    1 NMatS0=      1 NMatT0=    0 NMatD0=    1 NMtDS0=    0 NMtDT0=    0
 Symmetry not used in FoFCou.
 E= -113.922290029986    
 DIIS: error= 6.51D-04 at cycle   1 NSaved=   1.
 NSaved= 1 IEnMin= 1 EnMin= -113.922290029986     IErMin= 1 ErrMin= 6.51D-04
 ErrMax= 6.51D-04  0.00D+00 EMaxC= 1.00D-01 BMatC= 3.35D-05 BMatP= 3.35D-05
 IDIUse=3 WtCom= 9.93D-01 WtEn= 6.51D-03
 Coeff-Com:  0.100D+01
 Coeff-En:   0.100D+01
 Coeff:      0.100D+01
 Gap=     2.582 Goal=   None    Shift=    0.000
 RMSDP=2.80D-05 MaxDP=9.15D-04              OVMax= 1.54D-03

 Cycle   2  Pass 1  IDiag  1:
 RMSU=  2.80D-05    CP:  1.00D+00
 E= -113.922313615300     Delta-E=       -0.000023585315 Rises=F Damp=F
 DIIS: error= 9.67D-05 at cycle   2 NSaved=   2.
 NSaved= 2 IEnMin= 2 EnMin= -113.922313615300     IErMin= 2 ErrMin= 9.67D-05
 ErrMax= 9.67D-05  0.00D+00 EMaxC= 1.00D-01 BMatC= 8.77D-07 BMatP= 3.35D-05
 IDIUse=1 WtCom= 1.00D+00 WtEn= 0.00D+00
 Coeff-Com: -0.801D-01 0.108D+01
 Coeff:     -0.801D-01 0.108D+01
 Gap=     0.556 Goal=   None    Shift=    0.000
 RMSDP=6.60D-06 MaxDP=2.55D-04 DE=-2.36D-05 OVMax= 5.61D-04

 Cycle   3  Pass 1  IDiag  1:
 RMSU=  4.35D-06    CP:  1.00D+00  1.18D+00
 E= -113.922315117218     Delta-E=       -0.000001501917 Rises=F Damp=F
 DIIS: error= 2.84D-05 at cycle   3 NSaved=   3.
 NSaved= 3 IEnMin= 3 EnMin= -113.922315117218     IErMin= 3 ErrMin= 2.84D-05
 ErrMax= 2.84D-05  0.00D+00 EMaxC= 1.00D-01 BMatC= 6.33D-08 BMatP= 8.77D-07
 IDIUse=1 WtCom= 1.00D+00 WtEn= 0.00D+00
 Coeff-Com:  0.741D-02-0.298D+00 0.129D+01
 Coeff:      0.741D-02-0.298D+00 0.129D+01
 Gap=     0.556 Goal=   None    Shift=    0.000
 RMSDP=3.00D-06 MaxDP=1.08D-04 DE=-1.50D-06 OVMax= 2.58D-04

 Cycle   4  Pass 1  IDiag  1:
 RMSU=  8.01D-07    CP:  1.00D+00  1.25D+00  1.49D+00
 E= -113.922315287933     Delta-E=       -0.000000170715 Rises=F Damp=F
 DIIS: error= 6.16D-06 at cycle   4 NSaved=   4.
 NSaved= 4 IEnMin= 4 EnMin= -113.922315287933     IErMin= 4 ErrMin= 6.16D-06
 ErrMax= 6.16D-06  0.00D+00 EMaxC= 1.00D-01 BMatC= 2.50D-09 BMatP= 6.33D-08
 IDIUse=1 WtCom= 1.00D+00 WtEn= 0.00D+00
 Coeff-Com:  0.303D-02-0.372D-01-0.488D-01 0.108D+01
 Coeff:      0.303D-02-0.372D-01-0.488D-01 0.108D+01
 Gap=     0.556 Goal=   None    Shift=    0.000
 RMSDP=6.91D-07 MaxDP=1.68D-05 DE=-1.71D-07 OVMax= 6.16D-05

 Cycle   5  Pass 1  IDiag  1:
 RMSU=  2.07D-07    CP:  1.00D+00  1.26D+00  1.60D+00  1.38D+00
 E= -113.922315295261     Delta-E=       -0.000000007328 Rises=F Damp=F
 DIIS: error= 1.34D-06 at cycle   5 NSaved=   5.
 NSaved= 5 IEnMin= 5 EnMin= -113.922315295261     IErMin= 5 ErrMin= 1.34D-06
 ErrMax= 1.34D-06  0.00D+00 EMaxC= 1.00D-01 BMatC= 1.70D-10 BMatP= 2.50D-09
 IDIUse=1 WtCom= 1.00D+00 WtEn= 0.00D+00
 Coeff-Com: -0.130D-03 0.929D-02-0.536D-01 0.161D-01 0.103D+01
 Coeff:     -0.130D-03 0.929D-02-0.536D-01 0.161D-01 0.103D+01
 Gap=     0.556 Goal=   None    Shift=    0.000
 RMSDP=1.84D-07 MaxDP=5.25D-06 DE=-7.33D-09 OVMax= 1.50D-05

 Cycle   6  Pass 1  IDiag  1:
 RMSU=  5.65D-08    CP:  1.00D+00  1.26D+00  1.63D+00  1.52D+00  1.45D+00
 E= -113.922315295643     Delta-E=       -0.000000000382 Rises=F Damp=F
 DIIS: error= 6.79D-07 at cycle   6 NSaved=   6.
 NSaved= 6 IEnMin= 6 EnMin= -113.922315295643     IErMin= 6 ErrMin= 6.79D-07
 ErrMax= 6.79D-07  0.00D+00 EMaxC= 1.00D-01 BMatC= 4.28D-11 BMatP= 1.70D-10
 IDIUse=1 WtCom= 1.00D+00 WtEn= 0.00D+00
 Coeff-Com: -0.349D-03 0.691D-02-0.138D-01-0.986D-01 0.347D+00 0.759D+00
 Coeff:     -0.349D-03 0.691D-02-0.138D-01-0.986D-01 0.347D+00 0.759D+00
 Gap=     0.556 Goal=   None    Shift=    0.000
 RMSDP=5.45D-08 MaxDP=1.64D-06 DE=-3.82D-10 OVMax= 3.86D-06

 Cycle   7  Pass 1  IDiag  1:
 RMSU=  1.74D-08    CP:  1.00D+00  1.26D+00  1.63D+00  1.55D+00  1.64D+00
                    CP:  1.01D+00
 E= -113.922315295690     Delta-E=       -0.000000000047 Rises=F Damp=F
 DIIS: error= 1.19D-07 at cycle   7 NSaved=   7.
 NSaved= 7 IEnMin= 7 EnMin= -113.922315295690     IErMin= 7 ErrMin= 1.19D-07
 ErrMax= 1.19D-07  0.00D+00 EMaxC= 1.00D-01 BMatC= 1.99D-12 BMatP= 4.28D-11
 IDIUse=1 WtCom= 1.00D+00 WtEn= 0.00D+00
 Coeff-Com:  0.111D-05-0.867D-03 0.572D-02 0.325D-02-0.133D+00-0.509D-02
 Coeff-Com:  0.113D+01
 Coeff:      0.111D-05-0.867D-03 0.572D-02 0.325D-02-0.133D+00-0.509D-02
 Coeff:      0.113D+01
 Gap=     0.556 Goal=   None    Shift=    0.000
 RMSDP=2.66D-08 MaxDP=8.52D-07 DE=-4.70D-11 OVMax= 1.52D-06

 Cycle   8  Pass 1  IDiag  1:
 RMSU=  4.47D-09    CP:  1.00D+00  1.26D+00  1.63D+00  1.56D+00  1.74D+00
                    CP:  1.21D+00  1.40D+00
 E= -113.922315295694     Delta-E=       -0.000000000004 Rises=F Damp=F
 DIIS: error= 1.52D-08 at cycle   8 NSaved=   8.
 NSaved= 8 IEnMin= 8 EnMin= -113.922315295694     IErMin= 8 ErrMin= 1.52D-08
 ErrMax= 1.52D-08  0.00D+00 EMaxC= 1.00D-01 BMatC= 3.81D-14 BMatP= 1.99D-12
 IDIUse=1 WtCom= 1.00D+00 WtEn= 0.00D+00
 Coeff-Com:  0.757D-05-0.934D-04-0.334D-03 0.321D-02 0.436D-03-0.230D-01
 Coeff-Com: -0.116D+00 0.114D+01
 Coeff:      0.757D-05-0.934D-04-0.334D-03 0.321D-02 0.436D-03-0.230D-01
 Coeff:     -0.116D+00 0.114D+01
 Gap=     0.556 Goal=   None    Shift=    0.000
 RMSDP=4.43D-09 MaxDP=1.64D-07 DE=-3.58D-12 OVMax= 2.26D-07

 SCF Done:  E(RHF) =  -113.922315296     A.U. after    8 cycles
            NFock=  8  Conv=0.44D-08     -V/T= 2.0000
 KE= 1.139211163694D+02 PE=-3.325791738954D+02 EE= 7.278110781474D+01
 Leave Link  502 at Tue Jul  9 11:14:13 2024, MaxMem=    97648640 cpu:             108.5 elap:               6.8
 (Enter /cluster/software/Gaussian/g16_B.01/l801.exe)
 Range of M.O.s used for correlation:     1   170
 NBasis=   170 NAE=     8 NBE=     8 NFC=     0 NFV=     0
 NROrb=    170 NOA=     8 NOB=     8 NVA=   162 NVB=   162

 **** Warning!!: The largest alpha MO coefficient is  0.16509649D+02

 Leave Link  801 at Tue Jul  9 11:14:13 2024, MaxMem=    97648640 cpu:               0.3 elap:               0.0
 (Enter /cluster/software/Gaussian/g16_B.01/l1002.exe)
 Minotr:  Closed shell wavefunction.
          Direct CPHF calculation.
          Differentiating once with respect to electric field.
                with respect to dipole field.
          Electric field/nuclear overlap derivatives assumed to be zero.
          Requested convergence is 1.0D-08 RMS, and 1.0D-07 maximum.
          Secondary convergence is 1.0D-12 RMS, and 1.0D-12 maximum.
          NewPWx=F KeepS1=T KeepF1=T KeepIn=T MapXYZ=F SortEE=F KeepMc=T.
 Two-electron integral symmetry not used.
          MDV=      97648640 using IRadAn=       4.
          Solving linear equations simultaneously, MaxMat=     384.
          There are     3 degrees of freedom in the 1st order CPHF.  IDoFFX=0 NUNeed=     3.
      3 vectors produced by pass  0 Test12= 4.32D-14 3.33D-08 XBig12= 5.15D+00 1.48D+00.
 AX will form     3 AO Fock derivatives at one time.
 FoFJK:  IHMeth= 1 ICntrl=       0 DoSepK=F KAlg= 0 I1Cent=           0 FoldK=F
 IRaf= 990000000 NMat=       3 IRICut=       1 DoRegI=T DoRafI=F ISym2E= 0 IDoP0=0 IntGTp=1.
 FoFCou: FMM=F IPFlag=           0 FMFlag=      100000 FMFlg1=           0
         NFxFlg=           0 DoJE=F BraDBF=F KetDBF=F FulRan=T
         wScrn=  0.000000 ICntrl=         0 IOpCl=  0 I1Cent=           0 NGrid=           0
         NMat0=    3 NMatS0=      3 NMatT0=    0 NMatD0=    3 NMtDS0=    0 NMtDT0=    0
 Symmetry not used in FoFCou.
      3 vectors produced by pass  1 Test12= 4.32D-14 3.33D-08 XBig12= 6.93D-01 2.30D-01.
      3 vectors produced by pass  2 Test12= 4.32D-14 3.33D-08 XBig12= 6.16D-02 9.43D-02.
      3 vectors produced by pass  3 Test12= 4.32D-14 3.33D-08 XBig12= 2.34D-03 1.88D-02.
      3 vectors produced by pass  4 Test12= 4.32D-14 3.33D-08 XBig12= 8.38D-05 3.50D-03.
      3 vectors produced by pass  5 Test12= 4.32D-14 3.33D-08 XBig12= 4.87D-06 6.43D-04.
      3 vectors produced by pass  6 Test12= 4.32D-14 3.33D-08 XBig12= 5.73D-08 6.01D-05.
      3 vectors produced by pass  7 Test12= 4.32D-14 3.33D-08 XBig12= 7.15D-10 7.73D-06.
      3 vectors produced by pass  8 Test12= 4.32D-14 3.33D-08 XBig12= 7.56D-12 7.58D-07.
      1 vectors produced by pass  9 Test12= 4.32D-14 3.33D-08 XBig12= 9.76D-14 9.54D-08.
 InvSVY:  IOpt=1 It=  1 EMax= 8.88D-16
 Solved reduced A of dimension    28 with     3 vectors.
 End of Minotr F.D. properties file   721 does not exist.
 End of Minotr F.D. properties file   722 does not exist.
 End of Minotr F.D. properties file   788 does not exist.
 Leave Link 1002 at Tue Jul  9 11:14:22 2024, MaxMem=    97648640 cpu:             146.2 elap:               9.2
 (Enter /cluster/software/Gaussian/g16_B.01/l1101.exe)
 Using compressed storage, NAtomX=     4.
 Will process      5 centers per pass.
 PrsmSu:  requested number of processors reduced to:   2 ShMem   1 Linda.
 PrsmSu:  requested number of processors reduced to:   9 ShMem   1 Linda.
 Leave Link 1101 at Tue Jul  9 11:14:22 2024, MaxMem=    97648640 cpu:               1.5 elap:               0.2
 (Enter /cluster/software/Gaussian/g16_B.01/l1102.exe)
 Symmetrizing basis deriv contribution to polar:
 IMax=3 JMax=2 DiffMx= 0.00D+00
 Leave Link 1102 at Tue Jul  9 11:14:23 2024, MaxMem=    97648640 cpu:               0.4 elap:               0.1
 (Enter /cluster/software/Gaussian/g16_B.01/l1110.exe)
 Forming Gx(P) for the SCF density, NAtomX=     4.
 Integral derivatives from FoFJK, PRISM(SPDF).
 Do as many integral derivatives as possible in FoFJK.
 G2DrvN: MDV=      97648192.
 G2DrvN: will do     3 centers at a time, making    2 passes.
 Estimated number of processors is:   10
 G2DrvN:  IPasSy=1 do centers    0 through    2.
 PxScal for G2LodP:  IOpCl= 0 ISclPx=1 IMOff=     1 NMtTot=     4 NTT=   14535 ScalPx= 2.48D+00
 Calling FoFCou, ICntrl=  3107 FMM=F I1Cent=   0 AccDes= 0.00D+00.
 FoFJK:  IHMeth= 1 ICntrl=    3107 DoSepK=F KAlg= 0 I1Cent=           0 FoldK=F
 IRaf=         0 NMat=       1 IRICut=       1 DoRegI=T DoRafI=F ISym2E= 0 IDoP0=0 IntGTp=1.
 FoFCou: FMM=F IPFlag=           0 FMFlag=      100000 FMFlg1=           0
         NFxFlg=           0 DoJE=F BraDBF=F KetDBF=F FulRan=T
         wScrn=  0.000000 ICntrl=      3107 IOpCl=  0 I1Cent=           0 NGrid=           0
         NMat0=    1 NMatS0=      1 NMatT0=    0 NMatD0=    4 NMtDS0=    3 NMtDT0=    0
 Symmetry not used in FoFCou.
 CoulSu:  requested number of processors reduced to:  10 ShMem   1 Linda.
 G2DrvN:  IPasSy=1 do centers    3 through    4.
 PxScal for G2LodP:  IOpCl= 0 ISclPx=1 IMOff=     1 NMtTot=     4 NTT=   14535 ScalPx= 2.48D+00
 Calling FoFCou, ICntrl=  3107 FMM=F I1Cent=   0 AccDes= 0.00D+00.
 CoulSu:  requested number of processors reduced to:  10 ShMem   1 Linda.
 End of G2Drv F.D. properties file   721 does not exist.
 End of G2Drv F.D. properties file   722 does not exist.
 End of G2Drv F.D. properties file   788 does not exist.
 Leave Link 1110 at Tue Jul  9 11:14:34 2024, MaxMem=    97648640 cpu:             119.8 elap:              11.9
 (Enter /cluster/software/Gaussian/g16_B.01/l1002.exe)
 Minotr:  Closed shell wavefunction.
          IDoAtm=1111
          Direct CPHF calculation.
          Differentiating once with respect to electric field.
                with respect to dipole field.
          Differentiating once with respect to nuclear coordinates.
          Requested convergence is 1.0D-08 RMS, and 1.0D-07 maximum.
          Secondary convergence is 1.0D-12 RMS, and 1.0D-12 maximum.
          NewPWx=T KeepS1=F KeepF1=F KeepIn=T MapXYZ=F SortEE=F KeepMc=T.
 Two-electron integral symmetry not used.
          MDV=      97648640 using IRadAn=       4.
          Solving linear equations simultaneously, MaxMat=     384.
 FoF2E skips out because all densities are zero.
 FoFJK:  IHMeth= 1 ICntrl=       0 DoSepK=F KAlg= 0 I1Cent=           0 FoldK=F
 IRaf= 990000000 NMat=       4 IRICut=       1 DoRegI=T DoRafI=F ISym2E= 0 IDoP0=0 IntGTp=1.
 FoFCou: FMM=F IPFlag=           0 FMFlag=      100000 FMFlg1=           0
         NFxFlg=           0 DoJE=F BraDBF=F KetDBF=F FulRan=T
         wScrn=  0.000000 ICntrl=         0 IOpCl=  0 I1Cent=           0 NGrid=           0
         NMat0=    4 NMatS0=      4 NMatT0=    0 NMatD0=    4 NMtDS0=    0 NMtDT0=    0
 Symmetry not used in FoFCou.
          There are    15 degrees of freedom in the 1st order CPHF.  IDoFFX=5 NUNeed=    15.
 Will reuse    3 saved solutions.
      9 vectors produced by pass  0 Test12= 8.64D-15 6.67D-09 XBig12= 6.15D-02 9.02D-02.
 AX will form     3 AO Fock derivatives at one time.
      9 vectors produced by pass  1 Test12= 8.64D-15 6.67D-09 XBig12= 1.03D-02 4.70D-02.
      9 vectors produced by pass  2 Test12= 8.64D-15 6.67D-09 XBig12= 2.24D-04 5.73D-03.
      9 vectors produced by pass  3 Test12= 8.64D-15 6.67D-09 XBig12= 2.19D-06 4.61D-04.
      9 vectors produced by pass  4 Test12= 8.64D-15 6.67D-09 XBig12= 2.43D-08 5.71D-05.
      9 vectors produced by pass  5 Test12= 8.64D-15 6.67D-09 XBig12= 2.18D-10 5.40D-06.
      9 vectors produced by pass  6 Test12= 8.64D-15 6.67D-09 XBig12= 2.77D-12 6.46D-07.
      5 vectors produced by pass  7 Test12= 8.64D-15 6.67D-09 XBig12= 1.86D-14 2.89D-08.
 InvSVY:  IOpt=1 It=  1 EMax= 6.66D-16
 Solved reduced A of dimension    68 with     9 vectors.
 FullF1:  Do perturbations      1 to       3.
 Isotropic polarizability for W=    0.000000       15.27 Bohr**3.
 FullF1:  Do perturbations      1 to       3.
 FullF1:  Do perturbations      4 to       6.
 End of Minotr F.D. properties file   721 does not exist.
 End of Minotr F.D. properties file   722 does not exist.
 End of Minotr F.D. properties file   788 does not exist.
 Leave Link 1002 at Tue Jul  9 11:15:03 2024, MaxMem=    97648640 cpu:             461.7 elap:              29.0
 (Enter /cluster/software/Gaussian/g16_B.01/l601.exe)
 Copying SCF densities to generalized density rwf, IOpCl= 0 IROHF=0.

 **********************************************************************

            Population analysis using the SCF Density.

 **********************************************************************

 Alpha  occ. eigenvalues --  -20.57226 -11.33173  -1.42421  -0.86848  -0.70271
 Alpha  occ. eigenvalues --   -0.65995  -0.54896  -0.43961
 Alpha virt. eigenvalues --    0.11675   0.12254   0.17619   0.21810   0.33658
 Alpha virt. eigenvalues --    0.34451   0.34510   0.46798   0.47935   0.54093
 Alpha virt. eigenvalues --    0.54378   0.62955   0.65270   0.67605   0.74497
 Alpha virt. eigenvalues --    0.74994   0.81711   0.87009   0.90426   0.95847
 Alpha virt. eigenvalues --    1.02604   1.07911   1.12105   1.14199   1.21817
 Alpha virt. eigenvalues --    1.33991   1.46424   1.47104   1.50881   1.54555
 Alpha virt. eigenvalues --    1.63118   1.63184   1.73482   1.78680   1.87723
 Alpha virt. eigenvalues --    1.92408   2.02339   2.04144   2.04846   2.07388
 Alpha virt. eigenvalues --    2.10716   2.13875   2.29000   2.36611   2.37754
 Alpha virt. eigenvalues --    2.38176   2.48052   2.58156   2.61868   2.66081
 Alpha virt. eigenvalues --    2.67152   2.78950   2.81347   2.87624   2.90705
 Alpha virt. eigenvalues --    3.09753   3.10055   3.20086   3.21995   3.42777
 Alpha virt. eigenvalues --    3.48828   3.58090   3.62584   3.67673   3.70647
 Alpha virt. eigenvalues --    3.72521   3.75012   3.89483   4.05000   4.05896
 Alpha virt. eigenvalues --    4.13193   4.33361   4.38217   4.39994   4.58170
 Alpha virt. eigenvalues --    4.61755   4.70685   4.73270   5.05646   5.07238
 Alpha virt. eigenvalues --    5.38033   5.42119   5.50970   5.53914   5.67923
 Alpha virt. eigenvalues --    5.72662   5.84261   6.01662   6.03858   6.10872
 Alpha virt. eigenvalues --    6.20295   6.26228   6.26916   6.28019   6.34140
 Alpha virt. eigenvalues --    6.36527   6.41242   6.49822   6.63461   6.74834
 Alpha virt. eigenvalues --    6.76495   6.78585   6.92718   7.01944   7.22480
 Alpha virt. eigenvalues --    7.47401   7.58659   7.71449   7.71683   7.75309
 Alpha virt. eigenvalues --    7.81752   7.85123   7.87394   7.96900   8.04514
 Alpha virt. eigenvalues --    8.06934   8.28113   8.29965   8.46798   8.50155
 Alpha virt. eigenvalues --    8.53951   8.59388   8.77050   8.87582   8.89621
 Alpha virt. eigenvalues --    8.98330   9.29846   9.35270   9.37629   9.45167
 Alpha virt. eigenvalues --    9.59784   9.67129   9.93397  10.15108  10.28682
 Alpha virt. eigenvalues --   10.29500  10.37369  10.57301  10.63450  10.72766
 Alpha virt. eigenvalues --   10.74894  10.95082  11.12184  11.26020  11.42223
 Alpha virt. eigenvalues --   11.59861  11.61571  11.62219  11.84665  11.99978
 Alpha virt. eigenvalues --   12.23595  12.37547  12.59639  12.76616  12.91892
 Alpha virt. eigenvalues --   12.99068  13.37322  13.93090  14.47280  14.68577
 Alpha virt. eigenvalues --   25.95048  42.81377
          Condensed to atoms (all electrons):
               1          2          3          4
     1  O    7.842595   0.684742  -0.080599  -0.081214
     2  C    0.684742   4.198881   0.390785   0.397360
     3  H   -0.080599   0.390785   0.817131  -0.149159
     4  H   -0.081214   0.397360  -0.149159   0.817560
 Mulliken charges:
               1
     1  O   -0.365524
     2  C    0.328231
     3  H    0.021842
     4  H    0.015452
 Sum of Mulliken charges =  -0.00000
 Mulliken charges with hydrogens summed into heavy atoms:
               1
     1  O   -0.365524
     2  C    0.365524
 APT charges:
               1
     1  O   -0.694300
     2  C    0.775410
     3  H   -0.038473
     4  H   -0.042637
 Sum of APT charges =  -0.00000
 APT charges with hydrogens summed into heavy atoms:
               1
     1  O   -0.694300
     2  C    0.694300
 Electronic spatial extent (au):  <R**2>=             58.9481
 Charge=             -0.0000 electrons
 Dipole moment (field-independent basis, Debye):
    X=              0.0000    Y=              0.0157    Z=             -2.6819  Tot=              2.6819
 Quadrupole moment (field-independent basis, Debye-Ang):
   XX=            -11.5950   YY=            -11.4105   ZZ=            -12.0839
   XY=             -0.0000   XZ=             -0.0000   YZ=             -0.0158
 Traceless Quadrupole moment (field-independent basis, Debye-Ang):
   XX=              0.1014   YY=              0.2860   ZZ=             -0.3874
   XY=             -0.0000   XZ=             -0.0000   YZ=             -0.0158
 Octapole moment (field-independent basis, Debye-Ang**2):
  XXX=              0.0000  YYY=              0.0516  ZZZ=              0.2381  XYY=             -0.0000
  XXY=              0.0256  XXZ=              0.4551  XZZ=              0.0000  YZZ=              0.0311
  YYZ=             -0.5956  XYZ=             -0.0000
 Hexadecapole moment (field-independent basis, Debye-Ang**3):
 XXXX=            -10.0957 YYYY=            -17.3108 ZZZZ=            -43.4341 XXXY=             -0.0000
 XXXZ=             -0.0000 YYYX=             -0.0000 YYYZ=             -0.0745 ZZZX=             -0.0000
 ZZZY=             -0.1031 XXYY=             -4.9165 XXZZ=             -8.8516 YYZZ=             -9.6972
 XXYZ=             -0.0374 YYXZ=             -0.0000 ZZXY=             -0.0000
 N-N= 3.195463441555D+01 E-N=-3.325791745890D+02  KE= 1.139211163694D+02
  Exact polarizability:  10.780   0.000  15.173   0.000   0.121  19.861
 Approx polarizability:  10.437   0.000  12.369   0.000   0.075  17.349
 No NMR shielding tensors so no spin-rotation constants.
 Leave Link  601 at Tue Jul  9 11:15:04 2024, MaxMem=    97648640 cpu:               2.6 elap:               0.2
 (Enter /cluster/software/Gaussian/g16_B.01/l701.exe)
 SCFChk:  SCF convergence  4.43D-09 required  1.00D-08
 ... and contract with generalized density number  0.
 Compute integral second derivatives.
 Entering OneElI...
 Calculate overlap and kinetic energy integrals
    NBasis = 210  MinDer = 2  MaxDer = 2
 Requested accuracy = 0.1000D-12
 PrsmSu:  requested number of processors reduced to:   1 ShMem   1 Linda.
 PrmmSu-InSpLW:  IPartL=    0 NPrtUS=    1 NPrtUL=    1 DoSpLW=F IThBeg=    0 IThEnd=    0 NThAct=    1.
 PrSmSu:  IncTry=   512 NBBP=           1275 NTPThr=   100 NPartT=    1 Incr=          12 LDynOK=F GPUOK=F.
 PrsmSu:  NPrtUS=   1 ThrOK=F IAlg=2 LenDen=           0 ISkipM=0 DoSpLW=F IThBeg=    0 IThEnd=    0.
 Prism:   IPart=     0 DynPar=F LinDyn=F Incr=          12.
 PRISM was handed    97371836 working-precision words and  1275 shell-pairs
 IPart=  0 NShTot=        1275 NBatch=          77 AvBLen=        16.6
 PrSmSu:  NxtVal=             13.
 Entering OneElI...
 Calculate potential energy integrals
    NBasis = 210  MinDer = 2  MaxDer = 2
 Requested accuracy = 0.1000D-12
 PrsmSu:  requested number of processors reduced to:   4 ShMem   1 Linda.
 PrmmSu-InSpLW:  IPartL=    0 NPrtUS=    4 NPrtUL=    1 DoSpLW=F IThBeg=    0 IThEnd=    3 NThAct=    4.
 PrSmSu:  IncTry=   512 NBBP=           5092 NTPThr=   100 NPartT=    4 Incr=          12 LDynOK=F GPUOK=F.
 PrsmSu:  NPrtUS=   4 ThrOK=T IAlg=2 LenDen=           0 ISkipM=0 DoSpLW=F IThBeg=    0 IThEnd=    3.
 Prism:   IPart=     0 DynPar=F LinDyn=F Incr=          12.
 PRISM was handed    24334029 working-precision words and  1273 shell-pairs
 PRISM was handed    24334029 working-precision words and  1273 shell-pairs
 PRISM was handed    24334029 working-precision words and  1273 shell-pairs
 PRISM was handed    24334029 working-precision words and  1273 shell-pairs
 IPart=  2 NShTot=        1236 NBatch=         309 AvBLen=         4.0
 IPart=  0 NShTot=        1332 NBatch=         333 AvBLen=         4.0
 IPart=  3 NShTot=        1224 NBatch=         306 AvBLen=         4.0
 IPart=  1 NShTot=        1300 NBatch=         325 AvBLen=         4.0
 PrSmSu:  NxtVal=             49.
 Polarizability after L701:
                1             2             3 
      1  0.107803D+02
      2  0.000000D+00  0.151728D+02
      3  0.000000D+00  0.120751D+00  0.198606D+02
 Dipole Derivatives after L701:
                 1             2             3             4             5 
      1  -0.391389D+00  0.000000D+00  0.000000D+00  0.222230D+00  0.000000D+00
      2   0.000000D+00 -0.536494D+00 -0.130795D-01  0.000000D+00  0.882361D+00
      3   0.000000D+00 -0.343507D-02 -0.115502D+01  0.000000D+00  0.129003D-01
                 6             7             8             9            10 
      1   0.000000D+00  0.867484D-01  0.000000D+00  0.000000D+00  0.824099D-01
      2   0.229850D-01  0.000000D+00 -0.171086D+00  0.637626D-01  0.000000D+00
      3   0.122164D+01  0.000000D+00  0.131680D+00 -0.310807D-01  0.000000D+00
                11            12 
      1   0.000000D+00  0.000000D+00
      2  -0.174781D+00 -0.736682D-01
      3  -0.141145D+00 -0.355392D-01
 Hessian after L701:
                1             2             3             4             5 
      1  0.130811D+02
      2  0.000000D+00  0.106044D+02
      3  0.000000D+00  0.180262D-01 -0.881450D+00
      4 -0.132179D+02  0.000000D+00  0.000000D+00  0.180333D+02
      5  0.000000D+00 -0.117300D+02 -0.278082D-02  0.000000D+00  0.142967D+02
      6  0.000000D+00  0.157807D-03  0.140051D+01  0.000000D+00 -0.150697D-01
      7  0.676252D-01  0.000000D+00  0.000000D+00 -0.242680D+01  0.000000D+00
      8  0.000000D+00  0.569912D+00 -0.284166D+00  0.000000D+00 -0.132498D+01
      9  0.000000D+00 -0.327059D+00 -0.260744D+00  0.000000D+00 -0.892960D+00
     10  0.691198D-01  0.000000D+00  0.000000D+00 -0.238859D+01  0.000000D+00
     11  0.000000D+00  0.555698D+00  0.268920D+00  0.000000D+00 -0.124166D+01
     12  0.000000D+00  0.308875D+00 -0.258315D+00  0.000000D+00  0.910811D+00
                6             7             8             9            10 
      6  0.241262D+01
      7  0.000000D+00  0.207396D+01
      8 -0.788302D+00  0.000000D+00  0.129672D+01
      9 -0.193019D+01  0.000000D+00  0.115024D+01  0.187581D+01
     10  0.000000D+00  0.285220D+00  0.000000D+00  0.000000D+00  0.203425D+01
     11  0.803214D+00  0.000000D+00 -0.541653D+00  0.697789D-01  0.000000D+00
     12 -0.188294D+01  0.000000D+00 -0.777726D-01  0.315120D+00  0.000000D+00
               11            12 
     11  0.122761D+01
     12 -0.114191D+01  0.182614D+01
 Leave Link  701 at Tue Jul  9 11:15:04 2024, MaxMem=    97648640 cpu:               0.9 elap:               0.3
 (Enter /cluster/software/Gaussian/g16_B.01/l702.exe)
 L702 exits ... SP integral derivatives will be done elsewhere.
 Leave Link  702 at Tue Jul  9 11:15:04 2024, MaxMem=    97648640 cpu:               0.3 elap:               0.0
 (Enter /cluster/software/Gaussian/g16_B.01/l703.exe)
 Integral derivatives from FoFJK, PRISM(SPDF).
 Compute integral second derivatives, UseDBF=F ICtDFT=           0.
 ICntrl=    100127.
 Calling FoFJK, ICntrl=    100127 FMM=F ISym2X=0 I1Cent= 0 IOpClX= 0 NMat=1 NMatS=1 NMatT=0.
 FoFJK:  IHMeth= 1 ICntrl=  100127 DoSepK=F KAlg= 0 I1Cent=           0 FoldK=F
 IRaf=         0 NMat=       1 IRICut=       1 DoRegI=T DoRafI=F ISym2E= 0 IDoP0=0 IntGTp=1.
 FoFCou: FMM=F IPFlag=           0 FMFlag=      100000 FMFlg1=         800
         NFxFlg=           0 DoJE=F BraDBF=F KetDBF=F FulRan=T
         wScrn=  0.000000 ICntrl=    100127 IOpCl=  0 I1Cent=           0 NGrid=           0
         NMat0=    1 NMatS0=      1 NMatT0=    0 NMatD0=    1 NMtDS0=    0 NMtDT0=    0
 Symmetry not used in FoFCou.
 FoFCou:  KetSym=F NOpSet=  1 NOpAb=1 NOp=  1.
 FoFCou:  CnvScl= 1.00D+00 Thresh= 1.00D-12 IAcrcy=      10.
 PrismS was handed    97482766 working-precision words and  1275 shell-pairs
 FoFCou: LinMIO=F DoNuc=F BraDBF=F KetDBF=F HaveP=T PDBF=F HaveZ=T HaveW=F
         NIJTC =      15 NIJTAt=       0 NIJTCD=       0 NIJTT =      15
         IJTBeg=       1 IJTEnd=      15 KLTBeg=       1 KLTEnd=      15
         IPTBeg=       1 IPTEnd=      15 IPTBCv=       1 IPTECv=      15
         IZTBeg=       1 IZTEnd=      15 IZTBCv=       1 IZTECv=      15
         IWTBeg=      16 IWTEnd=      15 IWTBCv=      16 IWTECv=      15
         INTBeg=       1 INTEnd=       0 IFTBCv=       1 IFTECv=      15
 NCel replicated for PrismC:     1
 CoulSu:  requested number of processors reduced to:   4 ShMem   1 Linda.
 CoulSu-InSpLW:  IPartL=    0 NPrtUS=    4 NPrtUL=    1 DoSpLW=F IThBeg=    0 IThEnd=    3 NThAct=    4.
 CoulSu:  IncTry=  1024 NBBP=         813450 NTPThr=   100 NPartT=    4 Incr=        1024 LDynOK=F GPUOK=F.
 CoulSu:  NPrtUS=   4 ThrOK=T IAlg=2 LenDen=           0 LWGrdD=           0 DoCopy=F ISkipM=0
          DoSpLW=F IThBeg=    0 IThEnd=    3.
 Enter PrismC:  IPart=  0 JobTyp=22 DoJE=F Cont=F.
 PrismC:  IPart=     0 DynPar=T LinDyn=F Incr=        1024 UseFst=F UseS4=T ISplat=2.
 PrismC was handed    24349292 working-precision words and  1275 shell-pairs
 Enter PrismC:  IPart=  2 JobTyp=22 DoJE=F Cont=F.
 Enter PrismC:  IPart=  3 JobTyp=22 DoJE=F Cont=F.
 PrismC:  IPart=     2 DynPar=T LinDyn=F Incr=        1024 UseFst=F UseS4=T ISplat=2.
 Enter PrismC:  IPart=  1 JobTyp=22 DoJE=F Cont=F.
 PrismC:  IPart=     3 DynPar=T LinDyn=F Incr=        1024 UseFst=F UseS4=T ISplat=2.
 PrismC was handed    24349292 working-precision words and  1275 shell-pairs
 PrismC was handed    24349292 working-precision words and  1275 shell-pairs
 PrismC:  IPart=     1 DynPar=T LinDyn=F Incr=        1024 UseFst=F UseS4=T ISplat=2.
 PrismC was handed    24349292 working-precision words and  1275 shell-pairs
 IPart=  2 NShTot=      203758 NShNF=      203758 NShFF=           0 MinMC=       3
           NShCPU=      203758 NBCPU=        7398 AvBCPU=        27.5
           NShGPU=           0 NBGPU=           0 AvBGPU=         0.0
 IPart=  3 NShTot=      196137 NShNF=      196137 NShFF=           0 MinMC=       3
           NShCPU=      196137 NBCPU=        7692 AvBCPU=        25.5
           NShGPU=           0 NBGPU=           0 AvBGPU=         0.0
 IPart=  1 NShTot=      189184 NShNF=      189184 NShFF=           0 MinMC=       3
           NShCPU=      189184 NBCPU=        6875 AvBCPU=        27.5
           NShGPU=           0 NBGPU=           0 AvBGPU=         0.0
 IPart=  0 NShTot=      209528 NShNF=      209528 NShFF=           0 MinMC=       3
           NShCPU=      209528 NBCPU=        8033 AvBCPU=        26.1
           NShGPU=           0 NBGPU=           0 AvBGPU=         0.0
 CoulSu:  NxtVal=         861185 LenVP=       24349293 MinMC=       3.
 Polarizability after L703:
                1             2             3 
      1  0.107803D+02
      2  0.000000D+00  0.151728D+02
      3  0.000000D+00  0.120751D+00  0.198606D+02
 Dipole Derivatives after L703:
                 1             2             3             4             5 
      1  -0.391389D+00  0.000000D+00  0.000000D+00  0.222230D+00  0.000000D+00
      2   0.000000D+00 -0.536494D+00 -0.130795D-01  0.000000D+00  0.882361D+00
      3   0.000000D+00 -0.343507D-02 -0.115502D+01  0.000000D+00  0.129003D-01
                 6             7             8             9            10 
      1   0.000000D+00  0.867484D-01  0.000000D+00  0.000000D+00  0.824099D-01
      2   0.229850D-01  0.000000D+00 -0.171086D+00  0.637626D-01  0.000000D+00
      3   0.122164D+01  0.000000D+00  0.131680D+00 -0.310807D-01  0.000000D+00
                11            12 
      1   0.000000D+00  0.000000D+00
      2  -0.174781D+00 -0.736682D-01
      3  -0.141145D+00 -0.355392D-01
 Hessian after L703:
                1             2             3             4             5 
      1  0.235483D-01
      2  0.000000D+00  0.867813D-01
      3  0.000000D+00 -0.118770D-02  0.106173D+01
      4 -0.713990D-01  0.000000D+00  0.000000D+00  0.216367D+00
      5  0.000000D+00 -0.122670D+00  0.268152D-02  0.000000D+00  0.660392D+00
      6  0.000000D+00  0.776994D-03 -0.966178D+00  0.000000D+00 -0.175940D-01
      7  0.241016D-01  0.000000D+00  0.000000D+00 -0.707186D-01  0.000000D+00
      8  0.000000D+00  0.181732D-01  0.171941D-01  0.000000D+00 -0.278997D+00
      9  0.000000D+00  0.440851D-01 -0.477982D-01  0.000000D+00  0.976002D-01
     10  0.237490D-01  0.000000D+00  0.000000D+00 -0.742492D-01  0.000000D+00
     11  0.000000D+00  0.177151D-01 -0.186879D-01  0.000000D+00 -0.258726D+00
     12  0.000000D+00 -0.436744D-01 -0.477585D-01  0.000000D+00 -0.826878D-01
                6             7             8             9            10 
      6  0.119003D+01
      7  0.000000D+00  0.223066D-01
      8  0.972323D-01  0.000000D+00  0.281711D+00
      9 -0.115324D+00  0.000000D+00 -0.127709D+00  0.152966D+00
     10  0.000000D+00  0.243104D-01  0.000000D+00  0.000000D+00  0.261897D-01
     11 -0.804153D-01  0.000000D+00 -0.208870D-01 -0.139763D-01  0.000000D+00
     12 -0.108526D+00  0.000000D+00  0.132826D-01  0.101565D-01  0.000000D+00
               11            12 
     11  0.261898D+00
     12  0.113080D+00  0.146128D+00
 Leave Link  703 at Tue Jul  9 11:15:31 2024, MaxMem=    97648640 cpu:             108.5 elap:              26.7
 (Enter /cluster/software/Gaussian/g16_B.01/l716.exe)
 FrcOut:
 IF    =        44 IFX   =        56 IFXYZ =        68
 IFFX  =        80 IFFFX =       158 IFLen =        12
 IFFLen=        78 IFFFLn=         0 IEDerv=       158
 LEDerv=       629 IFroze=       957 ICStrt=     59150
 Dipole        = 2.36259118D-15 6.19213332D-03-1.05513382D+00
 DipoleDeriv   =-3.91388626D-01-2.78912961D-15-1.34018626D-15
                -2.14457008D-15-5.36493848D-01-3.43506667D-03
                 2.49392503D-16-1.30794612D-02-1.15501886D+00
                 2.22230320D-01 9.06659734D-16-9.56446440D-16
                -1.71197273D-15 8.82361264D-01 1.29003030D-02
                -7.51375591D-15 2.29850385D-02 1.22163870D+00
                 8.67483988D-02-3.37197331D-16 2.14799100D-15
                 2.33304885D-16-1.71086093D-01 1.31679832D-01
                 1.30857169D-15 6.37626235D-02-3.10806889D-02
                 8.24099065D-02 2.21966721D-15 1.48641698D-16
                 3.62323792D-15-1.74781324D-01-1.41145068D-01
                 5.95579171D-15-7.36682008D-02-3.55391538D-02
 Polarizability= 1.07802903D+01 2.91152158D-14 1.51728000D+01
                 2.77674719D-14 1.20751040D-01 1.98605750D+01
 PolarDeriv    = 5.63212131D-13 1.41583370D-02 8.63067107D-14
                 3.58298570D+00 2.50257981D-14 7.57452036D-13
                -8.59833989D-03 1.72971427D-13 1.47667896D-02
                -6.19875380D-14 2.59562834D+00-2.04865788D-02
                 3.45170440D+00 5.60659834D-14-2.73585646D+00
                 5.39093474D-13-7.34055169D-02 1.12237487D+01
                 4.90336224D-13 5.22475736D-02-1.33000089D-13
                -2.56435018D+00-2.80921496D-13 3.21267297D-13
                 5.09899170D-02 6.43332037D-13 1.53972106D-01
                 1.19001808D-12 4.70649888D+00 1.23390972D-01
                -2.39035919D+00-1.11567781D-13 9.65823184D+00
                 1.38165589D-13 1.97750949D-01-5.17029044D+00
                -1.31355855D-12 1.22085687D+00-9.36146238D-14
                -4.76621443D-01 2.50757597D-13-2.35823388D-12
                 9.58294017D-01-5.49178393D-13 6.67491374D+00
                -5.21724898D-13-3.60434052D+00 1.97459179D+00
                -5.21183871D-01 1.82187872D-13-3.46852716D+00
                -4.81905770D-13 2.52762480D+00-2.94674211D+00
                 2.57707417D-13-1.28726278D+00 1.40308003D-13
                -5.42014070D-01 5.13810035D-15 1.27951454D-12
                -1.00068559D+00-2.68276457D-13-6.84365263D+00
                -6.06305646D-13-3.69778670D+00-2.07749618D+00
                -5.40161341D-01-1.26686075D-13-3.45384821D+00
                -1.96504680D-13-2.65197023D+00-3.10671612D+00
 HyperPolar    =-4.88101336D-13-1.18725809D-02 8.50886588D-14
                -1.14822222D+00-7.85596254D+00 2.42487260D-14
                -4.39276602D+01-9.66462052D-14-9.00055909D-01
                -3.97629465D+01
 Quadrupole    = 7.54132045D-02 2.12622508D-01-2.88035713D-01
                -1.06794460D-14-5.82562748D-15-1.17399058D-02
 -------------------------------------------------------------------
 Center     Atomic                   Forces (Hartrees/Bohr)
 Number     Number              X              Y              Z
 -------------------------------------------------------------------
      1        8          -0.000000000    0.000021887   -0.000010404
      2        6          -0.000000000   -0.008118695    0.000128215
      3        1           0.000000000    0.004133541   -0.002574269
      4        1           0.000000000    0.003963268    0.002456458
 -------------------------------------------------------------------
 Cartesian Forces:  Max     0.008118695 RMS     0.003046650
 Force constants in Cartesian coordinates: 
                1             2             3             4             5 
      1  0.235483D-01
      2  0.000000D+00  0.867813D-01
      3  0.000000D+00 -0.118770D-02  0.106173D+01
      4 -0.713990D-01  0.000000D+00  0.000000D+00  0.216367D+00
      5  0.000000D+00 -0.122670D+00  0.268152D-02  0.000000D+00  0.660392D+00
      6  0.000000D+00  0.776994D-03 -0.966178D+00  0.000000D+00 -0.175940D-01
      7  0.241016D-01  0.000000D+00  0.000000D+00 -0.707186D-01  0.000000D+00
      8  0.000000D+00  0.181732D-01  0.171941D-01  0.000000D+00 -0.278997D+00
      9  0.000000D+00  0.440851D-01 -0.477982D-01  0.000000D+00  0.976002D-01
     10  0.237490D-01  0.000000D+00  0.000000D+00 -0.742492D-01  0.000000D+00
     11  0.000000D+00  0.177151D-01 -0.186879D-01  0.000000D+00 -0.258726D+00
     12  0.000000D+00 -0.436744D-01 -0.477585D-01  0.000000D+00 -0.826878D-01
                6             7             8             9            10 
      6  0.119003D+01
      7  0.000000D+00  0.223066D-01
      8  0.972323D-01  0.000000D+00  0.281711D+00
      9 -0.115324D+00  0.000000D+00 -0.127709D+00  0.152966D+00
     10  0.000000D+00  0.243104D-01  0.000000D+00  0.000000D+00  0.261897D-01
     11 -0.804153D-01  0.000000D+00 -0.208870D-01 -0.139763D-01  0.000000D+00
     12 -0.108526D+00  0.000000D+00  0.132826D-01  0.101565D-01  0.000000D+00
               11            12 
     11  0.261898D+00
     12  0.113080D+00  0.146128D+00
 Final forces over variables, Energy=-1.13922315D+02:
 -1.60880713D-07 1.78026753D-08 1.78026760D-08-3.41879592D-08
 -3.41879590D-08 6.83759182D-08 5.37191787D-16
 Leave Link  716 at Tue Jul  9 11:15:31 2024, MaxMem=    97648640 cpu:               0.4 elap:               0.0
 (Enter /cluster/software/Gaussian/g16_B.01/l106.exe)
 NDeriv=      6 NFrqRd=  0 NDerD0=      0 MskFDP=       0 MskDFD=       0 MskDF0=       0
 Re-enter D2Numr:  normal mode   6 step-down number 1
 Max difference between Dipole analytic and numerical normal mode 1st derivatives:
 I=     3 ID=     5 Difference=    1.0412332930D-05
 Max difference between Dipole analytic and numerical normal mode 2nd derivatives:
 I=     3 ID=     1 Difference=    3.5116742405D-03
 Max difference between Polar analytic and numerical normal mode 1st derivatives:
 I=     3 ID=     5 Difference=    7.3252285487D-04
 Max difference between Polar analytic and numerical normal mode 2nd derivatives:
 I=     3 ID=     1 Difference=    2.7897358212D-02
 FinFTb:  IFil= 1 IFilD=  777 LTop=  1 LFil=       629 LTop1=  0 IMask=  1
 FinFTb:  IFil= 2 IFilD=  782 LTop=  1 LFil=       152 LTop1=  0 IMask=  1
 Leave Link  106 at Tue Jul  9 11:15:31 2024, MaxMem=    97648640 cpu:               2.2 elap:               0.2
 (Enter /cluster/software/Gaussian/g16_B.01/l716.exe)
 FrcOut:
 IF    =       107 IFX   =       119 IFXYZ =       131
 IFFX  =       143 IFFFX =       221 IFLen =        12
 IFFLen=        78 IFFFLn=       936 IEDerv=      1157
 LEDerv=       629 IFroze=     11308 ICStrt=     69501
 Dipole        = 2.21422283D-18 2.08628450D-17-1.05521089D+00
 DipoleDeriv   =-3.91401052D-01-2.63505422D-15-5.03249887D-16
                -4.45317940D-17-5.36503303D-01-1.00153851D-16
                -2.46675006D-16-1.29229973D-15-1.15493140D+00
                 2.22224401D-01 1.82387396D-15-3.68261513D-16
                -1.83698563D-16 8.82365400D-01 4.18168272D-15
                -6.65483177D-17 1.27402141D-15 1.22146874D+00
                 8.45883254D-02 5.99759940D-16 1.69824850D-15
                -8.54448256D-17-1.72931048D-01 1.36430865D-01
                 2.85952378D-17 6.87646523D-02-3.32686692D-02
                 8.45883254D-02 4.85687875D-16-1.18449863D-15
                 1.53062104D-16-1.72931048D-01-1.36430865D-01
                 1.42341191D-16-6.87646523D-02-3.32686692D-02
 Polarizability= 1.07799563D+01 6.39510901D-16 1.51718078D+01
                 1.30997925D-16 2.38697950D-15 1.98593851D+01
 PolarDeriv    =-9.12202210D-15 1.05098930D-14-5.40333115D-14
                 3.58297207D+00-2.18271255D-14 2.25818280D-14
                -1.70414233D-14-1.40382300D-15 3.47326216D-14
                -1.11623160D-15 2.59543368D+00 4.09680292D-14
                 3.45197511D+00-6.51591013D-15-2.73582910D+00
                -4.19486127D-15 3.01259512D-14 1.12244610D+01
                 1.70829440D-14 3.40599359D-13 1.10691809D-13
                -2.56469610D+00 3.28290061D-14-3.51272419D-14
                 5.41051704D-14-1.49322348D-14 2.28877383D-12
                -2.96317365D-14 4.70672361D+00 9.06478954D-14
                -2.39076085D+00-7.20388571D-15 9.65820947D+00
                -4.35568483D-15 9.82095926D-13-5.17210559D+00
                 1.09580173D-16 1.25410136D+00-2.97013309D-14
                -5.09137987D-01 5.91821572D-15 5.23389878D-14
                 9.79512880D-01-1.57859074D-15 6.75923339D+00
                -8.44124837D-16-3.65107864D+00 2.02598676D+00
                -5.30607127D-01-1.71468323D-16-3.46119018D+00
                 4.82647234D-16 2.59004359D+00-3.02617770D+00
                -1.22746988D-14-1.25410136D+00-2.04998161D-14
                -5.09137987D-01 9.71895113D-15-1.59533958D-14
                -9.79512880D-01 1.30558308D-14-6.75923339D+00
                 2.86273118D-14-3.65107864D+00-2.02598676D+00
                -5.30607127D-01 9.18311295D-15-3.46119018D+00
                 5.04516380D-15-2.59004359D+00-3.02617770D+00
 HyperPolar    = 7.34944111D-15-4.80264527D-14 6.70311030D-16
                -6.44931260D-13-7.85505701D+00-1.79970954D-15
                -4.39259043D+01 1.83137734D-15 1.40192810D-12
                -3.97539671D+01
 Quadrupole    = 7.53314329D-02 2.12625278D-01-2.87956711D-01
                 1.66259620D-17 9.14316627D-18-7.98093925D-16
 Read normal modes, IRwNMS= 10765 IRotNM=-2 NVibU=     6.
 Recovering previously computed normal modes.
 NorSel:  MapVib=      1      2      3      4      5      6
 Harmonic frequencies (cm**-1), IR intensities (KM/Mole), Raman scattering
 activities (A**4/AMU), depolarization ratios for plane and unpolarized
 incident light, reduced masses (AMU), force constants (mDyne/A),
 and normal coordinates:
                           1         2         3         4         5
                          B1        B2        A1        A1        A1
       Frequencies ---  1338.0799 1372.1915 1652.1529 1996.5300 3084.5423
    Reduced masses ---     1.3698    1.3494    1.0957    7.7126    1.0474
   Force constants ---     1.4450    1.4970    1.7622   18.1135    5.8715
    IR Intensities ---     2.7409   21.6585   18.3348  157.4082   64.9154
  Raman Activities ---     0.0137    1.2643    8.5018   11.6038  148.7742
    Depol. (Plane) ---     0.7500    0.7500    0.4440    0.2969    0.1318
    Depol. (Unpol) ---     0.8571    0.8571    0.6149    0.4579    0.2329
 Coord Atom Element:
   1     1     8          0.04313   0.00000   0.00000  -0.00000   0.00000
   2     1     8         -0.00000   0.08014   0.00000  -0.00000   0.00000
   3     1     8          0.00000   0.00000  -0.07657  -0.42886  -0.00049
   1     2     6         -0.17433  -0.00000  -0.00000   0.00000  -0.00000
   2     2     6          0.00000  -0.14938  -0.00000   0.00000  -0.00000
   3     2     6         -0.00000   0.00000  -0.00046   0.59933   0.06001
   1     3     1          0.69561   0.00000   0.00000  -0.00000   0.00000
   2     3     1         -0.00000   0.25334   0.35287  -0.44860   0.61097
   3     3     1         -0.00000   0.64919   0.61037  -0.16493  -0.35343
   1     4     1          0.69561   0.00000   0.00000  -0.00000   0.00000
   2     4     1          0.00000   0.25334  -0.35287   0.44860  -0.61097
   3     4     1          0.00000  -0.64919   0.61037  -0.16493  -0.35343
                           6
                          B2
       Frequencies ---  3152.9935
    Reduced masses ---     1.1192
   Force constants ---     6.5553
    IR Intensities ---   104.6760
  Raman Activities ---    67.2382
    Depol. (Plane) ---     0.7500
    Depol. (Unpol) ---     0.8571
 Coord Atom Element:
   1     1     8         -0.00000
   2     1     8          0.00020
   3     1     8          0.00000
   1     2     6          0.00000
   2     2     6         -0.10065
   3     2     6         -0.00000
   1     3     1         -0.00000
   2     3     1          0.59757
   3     3     1         -0.37127
   1     4     1         -0.00000
   2     4     1          0.59757
   3     4     1          0.37127
 Harmonic frequencies (cm**-1), IR intensities (KM/Mole), Raman scattering
 activities (A**4/AMU), depolarization ratios for plane and unpolarized
 incident light, reduced masses (AMU), force constants (mDyne/A),
 and normal coordinates:
                      1                      2                      3
                     B1                     B2                     A1
 Frequencies --   1338.0799              1372.1915              1652.1529
 Red. masses --      1.3698                 1.3494                 1.0957
 Frc consts  --      1.4450                 1.4970                 1.7622
 IR Inten    --      2.7409                21.6585                18.3348
 Raman Activ --      0.0137                 1.2643                 8.5018
 Depolar (P) --      0.7500                 0.7500                 0.4440
 Depolar (U) --      0.8571                 0.8571                 0.6149
  Atom  AN      X      Y      Z        X      Y      Z        X      Y      Z
     1   8     0.04  -0.00   0.00     0.00   0.08   0.00     0.00   0.00  -0.08
     2   6    -0.17   0.00  -0.00    -0.00  -0.15   0.00    -0.00  -0.00  -0.00
     3   1     0.70  -0.00  -0.00     0.00   0.25   0.65     0.00   0.35   0.61
     4   1     0.70   0.00   0.00     0.00   0.25  -0.65     0.00  -0.35   0.61
                      4                      5                      6
                     A1                     A1                     B2
 Frequencies --   1996.5300              3084.5423              3152.9935
 Red. masses --      7.7126                 1.0474                 1.1192
 Frc consts  --     18.1135                 5.8715                 6.5553
 IR Inten    --    157.4082                64.9154               104.6760
 Raman Activ --     11.6038               148.7742                67.2382
 Depolar (P) --      0.2969                 0.1318                 0.7500
 Depolar (U) --      0.4579                 0.2329                 0.8571
  Atom  AN      X      Y      Z        X      Y      Z        X      Y      Z
     1   8    -0.00  -0.00  -0.43     0.00   0.00  -0.00    -0.00   0.00   0.00
     2   6     0.00   0.00   0.60    -0.00  -0.00   0.06     0.00  -0.10  -0.00
     3   1    -0.00  -0.45  -0.16     0.00   0.61  -0.35    -0.00   0.60  -0.37
     4   1    -0.00   0.45  -0.16     0.00  -0.61  -0.35    -0.00   0.60   0.37

 -------------------
 - Thermochemistry -
 -------------------
 Temperature   298.150 Kelvin.  Pressure   1.00000 Atm.
 Atom     1 has atomic number  8 and mass  15.99491
 Atom     2 has atomic number  6 and mass  12.00000
 Atom     3 has atomic number  1 and mass   1.00783
 Atom     4 has atomic number  1 and mass   1.00783
 Molecular mass:    30.01056 amu.
 Principal axes and moments of inertia in atomic units:
                           1         2         3
     Eigenvalues --     6.17995  44.39534  50.57529
           X            0.00000   0.00000   1.00000
           Y            0.00000   1.00000   0.00000
           Z            1.00000   0.00000   0.00000
 This molecule is an asymmetric top.
 Rotational symmetry number  2.
 Rotational temperatures (Kelvin)     14.01530     1.95097     1.71257
 Rotational constants (GHZ):         292.03153    40.65159    35.68425
 Zero-point vibrational energy      75343.7 (Joules/Mol)
                                   18.00759 (Kcal/Mol)
 Vibrational temperatures:   1925.20  1974.28  2377.08  2872.56  4437.97
          (Kelvin)           4536.45
 
 Zero-point correction=                           0.028697 (Hartree/Particle)
 Thermal correction to Energy=                    0.031551
 Thermal correction to Enthalpy=                  0.032495
 Thermal correction to Gibbs Free Energy=         0.007748
 Sum of electronic and zero-point Energies=           -113.893686
 Sum of electronic and thermal Energies=              -113.890832
 Sum of electronic and thermal Enthalpies=            -113.889888
 Sum of electronic and thermal Free Energies=         -113.914634
 
                     E (Thermal)             CV                S
                      KCal/Mol        Cal/Mol-Kelvin    Cal/Mol-Kelvin
 Total                   19.798              6.264             52.084
 Electronic               0.000              0.000              0.000
 Translational            0.889              2.981             36.130
 Rotational               0.889              2.981             15.902
 Vibrational             18.021              0.303              0.051
                       Q            Log10(Q)             Ln(Q)
 Total Bot       0.272959D-03         -3.563903         -8.206191
 Total V=0       0.432265D+10          9.635750         22.187135
 Vib (Bot)       0.633557D-13        -13.198215        -30.390012
 Vib (V=0)       0.100332D+01          0.001439          0.003313
 Electronic      0.100000D+01          0.000000          0.000000
 Translational   0.646197D+07          6.810365         15.681445
 Rotational      0.666724D+03          2.823946          6.502376
 
                                                                Title
                                                             IR Spectrum
 
      3 3                                           1             1          1 1                                                     
      1 0                                           9             6          3 3                                                     
      5 8                                           9             5          7 3                                                     
      3 5                                           7             2          2 8                                                     
 
      X X                                           X             X          X X                                                     
      X X                                           X             X          X                                                       
      X X                                           X                        X                                                       
      X X                                           X                                                                                
      X X                                           X                                                                                
      X X                                           X                                                                                
      X X                                           X                                                                                
      X X                                           X                                                                                
      X                                             X                                                                                
      X                                             X                                                                                
      X                                             X                                                                                
      X                                             X                                                                                
      X                                             X                                                                                
                                                    X                                                                                
                                                    X                                                                                
                                                    X                                                                                
                                                    X                                                                                
                                                    X                                                                                
                                                    X                                                                                
                                                    X                                                                                
 
 
                                                                Title
                                                            Raman Spectrum
 
      3 3                                           1             1          1 1                                                     
      1 0                                           9             6          3 3                                                     
      5 8                                           9             5          7 3                                                     
      3 5                                           7             2          2 8                                                     
 
      X X                                           X             X          X                                                       
      X X                                           X                                                                                
      X X                                                                                                                            
      X X                                                                                                                            
      X X                                                                                                                            
      X X                                                                                                                            
      X X                                                                                                                            
      X X                                                                                                                            
      X X                                                                                                                            
        X                                                                                                                            
        X                                                                                                                            
        X                                                                                                                            
        X                                                                                                                            
        X                                                                                                                            
        X                                                                                                                            
        X                                                                                                                            
        X                                                                                                                            
        X                                                                                                                            
        X                                                                                                                            
        X                                                                                                                            
 
 Forces in standard orientation:
 -------------------------------------------------------------------
 Center     Atomic                   Forces (Hartrees/Bohr)
 Number     Number              X              Y              Z
 -------------------------------------------------------------------
      1        8           0.000000000    0.000000000    0.000000161
      2        6           0.000000000    0.000000000   -0.000000095
      3        1          -0.000000000   -0.000000041   -0.000000033
      4        1          -0.000000000    0.000000041   -0.000000033
 -------------------------------------------------------------------
 Cartesian Forces:  Max     0.000000161 RMS     0.000000058
 ***** Axes restored to original set *****
 Rotating derivatives, DoTrsp=F IDiff=-3 LEDeriv=    628 LFDPrp=       0 LDFDPr=       0.
 -------------------------------------------------------------------
 Center     Atomic                   Forces (Hartrees/Bohr)
 Number     Number              X              Y              Z
 -------------------------------------------------------------------
      1        8          -0.000000000   -0.000000000    0.000000161
      2        6          -0.000000000   -0.000000000   -0.000000095
      3        1           0.000000041    0.000000000   -0.000000033
      4        1          -0.000000041    0.000000000   -0.000000033
 -------------------------------------------------------------------
 Cartesian Forces:  Max     0.000000161 RMS     0.000000058
 Force constants in Cartesian coordinates: 
                1             2             3             4             5 
      1  0.867782D-01
      2  0.000000D+00  0.235437D-01
      3  0.000000D+00  0.000000D+00  0.106175D+01
      4 -0.122663D+00  0.000000D+00  0.000000D+00  0.660019D+00
      5  0.000000D+00 -0.713924D-01  0.000000D+00  0.000000D+00  0.216486D+00
      6  0.000000D+00  0.000000D+00 -0.966199D+00  0.000000D+00  0.000000D+00
      7  0.179427D-01  0.000000D+00 -0.179467D-01 -0.268678D+00  0.000000D+00
      8  0.000000D+00  0.239244D-01  0.000000D+00  0.000000D+00 -0.725467D-01
      9 -0.438800D-01  0.000000D+00 -0.477774D-01 -0.899804D-01  0.000000D+00
     10  0.179427D-01  0.000000D+00  0.179467D-01 -0.268678D+00  0.000000D+00
     11  0.000000D+00  0.239244D-01  0.000000D+00  0.000000D+00 -0.725467D-01
     12  0.438800D-01  0.000000D+00 -0.477774D-01  0.899804D-01  0.000000D+00
                6             7             8             9            10 
      6  0.118996D+01
      7 -0.886577D-01  0.271624D+00
      8  0.000000D+00  0.000000D+00  0.243111D-01
      9 -0.111881D+00  0.120232D+00  0.000000D+00  0.149499D+00
     10  0.886577D-01 -0.208892D-01  0.000000D+00  0.136280D-01  0.271624D+00
     11  0.000000D+00  0.000000D+00  0.243112D-01  0.000000D+00  0.000000D+00
     12 -0.111881D+00 -0.136280D-01  0.000000D+00  0.101600D-01 -0.120232D+00
               11            12 
     11  0.243111D-01
     12  0.000000D+00  0.149499D+00
 Cartesian forces in FCRed:
 I=    1 X=   0.000000000000D+00 Y=   0.000000000000D+00 Z=   1.608807451703D-07
 I=    2 X=   0.000000000000D+00 Y=   0.000000000000D+00 Z=  -9.548292823069D-08
 I=    3 X=   4.141913834133D-08 Y=   0.000000000000D+00 Z=  -3.269884496504D-08
 I=    4 X=  -4.141914033973D-08 Y=   0.000000000000D+00 Z=  -3.269884496504D-08
 Cartesian force constants in FCRed: 
                1             2             3             4             5 
      1  0.867782D-01
      2  0.000000D+00  0.235437D-01
      3  0.000000D+00  0.000000D+00  0.106175D+01
      4 -0.122663D+00  0.000000D+00  0.000000D+00  0.660019D+00
      5  0.000000D+00 -0.713924D-01  0.000000D+00  0.000000D+00  0.216486D+00
      6  0.000000D+00  0.000000D+00 -0.966199D+00  0.000000D+00  0.000000D+00
      7  0.179427D-01  0.000000D+00 -0.179467D-01 -0.268678D+00  0.000000D+00
      8  0.000000D+00  0.239244D-01  0.000000D+00  0.000000D+00 -0.725467D-01
      9 -0.438800D-01  0.000000D+00 -0.477774D-01 -0.899804D-01  0.000000D+00
     10  0.179427D-01  0.000000D+00  0.179467D-01 -0.268678D+00  0.000000D+00
     11  0.000000D+00  0.239244D-01  0.000000D+00  0.000000D+00 -0.725467D-01
     12  0.438800D-01  0.000000D+00 -0.477774D-01  0.899804D-01  0.000000D+00
                6             7             8             9            10 
      6  0.118996D+01
      7 -0.886577D-01  0.271624D+00
      8  0.000000D+00  0.000000D+00  0.243111D-01
      9 -0.111881D+00  0.120232D+00  0.000000D+00  0.149499D+00
     10  0.886577D-01 -0.208892D-01  0.000000D+00  0.136280D-01  0.271624D+00
     11  0.000000D+00  0.000000D+00  0.243112D-01  0.000000D+00  0.000000D+00
     12 -0.111881D+00 -0.136280D-01  0.000000D+00  0.101600D-01 -0.120232D+00
               11            12 
     11  0.243111D-01
     12  0.000000D+00  0.149499D+00
 Red2BG:  D1=  7.75D-01 OD1=  2.66D-15 B2RMS=  0.00D+00 IAprox=1
 Red2BG is reusing G-inverse.
 Internal forces: 
                 1 
      1   0.000000D+00
      2   0.000000D+00
      3   0.000000D+00
      4   0.000000D+00
      5   0.000000D+00
      6   0.000000D+00
      7   0.000000D+00
 Internal force constants: 
                1             2             3             4             5 
      1  0.106175D+01
      2  0.405347D-01  0.345394D+00
      3  0.405347D-01  0.562968D-02  0.345394D+00
      4  0.213421D-01  0.447304D-02 -0.133831D-01  0.131177D+00
      5  0.213421D-01 -0.133831D-01  0.447304D-02 -0.832713D-01  0.131177D+00
      6 -0.426842D-01  0.891011D-02  0.891011D-02 -0.479061D-01 -0.479061D-01
      7  0.000000D+00  0.000000D+00  0.000000D+00  0.000000D+00  0.000000D+00
                6             7 
      6  0.958122D-01
      7  0.000000D+00  0.836978D-01
 Force constants in internal coordinates: 
                1             2             3             4             5 
      1  0.106175D+01
      2  0.405347D-01  0.345394D+00
      3  0.405347D-01  0.562968D-02  0.345394D+00
      4  0.213421D-01  0.447304D-02 -0.133831D-01  0.131177D+00
      5  0.213421D-01 -0.133831D-01  0.447304D-02 -0.832713D-01  0.131177D+00
      6 -0.426842D-01  0.891011D-02  0.891011D-02 -0.479061D-01 -0.479061D-01
      7  0.000000D+00  0.000000D+00  0.000000D+00  0.000000D+00  0.000000D+00
                6             7 
      6  0.958122D-01
      7  0.000000D+00  0.836978D-01
 Final forces over variables, Energy=-1.13922382D+02:
 -1.60880713D-07 1.78026753D-08 1.78026760D-08-3.41879592D-08
 -3.41879590D-08 6.83759182D-08 5.37191787D-16
 Leave Link  716 at Tue Jul  9 11:15:31 2024, MaxMem=    97648640 cpu:               0.5 elap:               0.1
 (Enter /cluster/software/Gaussian/g16_B.01/l717.exe)

 **********************************************************************

             Second-order Perturbative Anharmonic Analysis

 **********************************************************************

     ==================================================
            Settings for Anharmonic Calculations
     ==================================================

 Using the following non-standard input for DiNa:
 ------------------------------------------------

 Spectro=MaxQuanta=3
 --- end of non-standard input.

 Conversion from  Hartrees  Bohrs Rad  
             to   attoJoule Angs. Rad  
 Scaling Factors
  Distances:   0.5291772  Angles:   1.0000000  Energies:      4.3597443

 Cut-offs for the present calculation
 ------------------------------------
   ## Tolerances on Data ##
 - Coordinates:       .52918D-05 Angs.
 - Angles:            .10000D-04 Rad  
 - Energies:          .19619D-07 attoJoule
 - 1st derivs.:       .37074D-02
 - 2nd derivs.:       .37074D-04
 - 3rd derivs.:       .37074D-04
 - 4th derivs.:       .37074D-04
 - Frequencies:       .10000D+01 cm-1
 - Coriolis Couplings:.10000D-02
 - Inertia Moments:   .10000D-03 amu Angs.**2
   ## Tolerances used for Resonances ##
 FERMI RESONANCES:
 - Max. Freq. Diff.                       0.2D+03 cm-1
 - Min. Diff. PT2 vs Variational:         0.1D+01 cm-1
 1-1 DARLING-DENNISON RESONANCES:
 - Max. Freq. Diff.:                      0.1D+03 cm-1
 - Min. value of Darling-Dennison terms:  0.1D+02 cm-1
 - Add. threshold for intensity term:     0.1D+01 cm-1
 1-3 DARLING-DENNISON RESONANCES:
 - Max. Freq. Diff.:                      0.1D+03 cm-1
 - Min. value of Darling-Dennison terms:  0.1D+02 cm-1
 - Add. threshold for intensity term:     0.3D+00 cm-1
 2-2 DARLING-DENNISON RESONANCES:
 - Max. Freq. Diff.:                      0.1D+03 cm-1
 - Min. value of Darling-Dennison terms:  0.1D+02 cm-1

     ==================================================
                      Reference System
     ==================================================

 NOTE: The system is set in Eckart orientation for the anharmonic
       treatment.
 Symm:  InNGrp=     InAxis=0 RotPrA=T RotCs=F.
 PtGrp-- Translation vector:    0.000000   -0.000000   -0.136577
 PtGrp-- Principal moments and axes of charge:
         Moments:        6.1799532       44.3953409       50.5752941
         Axes   :         0.000000         0.000000         1.000000
                          0.000000         1.000000         0.000000
                          1.000000         0.000000         0.000000
 The molecule is not linear, ITop=1.
 Principal inertia moments (amu-bohr**2):
 Iaa = 0.617995D+01 Ibb= 0.443953D+02 Icc= 0.505753D+02
 Rotation matrix to Principal Axis frame: 
                 1             2             3 
      1   0.000000D+00  0.000000D+00 -0.100000D+01
      2   0.000000D+00 -0.100000D+01  0.000000D+00
      3  -0.100000D+01  0.000000D+00  0.000000D+00
 PtGrp-- Principal moments and axes of charge:
         Moments:        6.1799532       44.3953409       50.5752941
         Axes   :         0.000000         0.000000         1.000000
                          0.000000         1.000000        -0.000000
                          1.000000        -0.000000        -0.000000
 Coordinates after PtGrp: 
                 1             2             3 
      1   0.752758D-16  0.321291D-15  0.111174D+01
      2  -0.608538D-16 -0.321199D-15 -0.111142D+01
      3  -0.470106D-15  0.175100D+01 -0.220532D+01
      4   0.000000D+00 -0.175100D+01 -0.220532D+01
 Rotation matrix after PtGrp: 
                 1             2             3 
      1   0.100000D+01  0.195472D-15 -0.612323D-16
      2  -0.195472D-15  0.100000D+01 -0.288998D-15
      3   0.612323D-16  0.288998D-15  0.100000D+01
 
 Atom           X                  Y                  Z
 ----------------------------------------------------------------
  O       0.0000000000000    0.0000000000000    0.5883085953873
  C      -0.0000000000000   -0.0000000000000   -0.5881393435430
  H      -0.0000000000000    0.9265868985036   -1.1670049643163
  H       0.0000000000000   -0.9265868985036   -1.1670049643163
 ----------------------------------------------------------------

     ==================================================
               Analysis of the Rotor Symmetry
     ==================================================

 Framework Group : C2V 
 Rotor Type      : Asymmetric Top
 Asymm. param.   : Kappa = -0.961245
 Inertia moments : X=    50.57529 , Y=    44.39534 , Z=     6.17995
 Representation  : Il Representation, Iz < Iy < Ix

 Axes Definition for the Symmetric-Top Representation
 ----------------------------------------------------
 Axis Z automatically chosen to be collinear with Z from Eckart orient.
 NOTE: In Vibro-rotational analysis, this will be referred to as the
       spectroscopic orientation.

     ==================================================
                   Data Source Definition
     ==================================================

 Main data sources
 -----------------
 Harmonic data taken from: current calculation
 Anharmonic data taken from: current calculation

     ==================================================
           Input Data Extraction and Preparation
     ==================================================

 Data for Harmonic Potential Energy Surface
 ------------------------------------------
 Read normal modes, IRwNMS= 10765 IRotNM= 0 NVibU=     6.

 Definition of the model system: Active modes
 --------------------------------------------
 The 6 Active Modes are:
     1     2     3     4     5     6

 Data for Anharmonic Potential Energy Surface
 --------------------------------------------
 Read normal modes, IRwNMS= 10765 IRotNM= 0 NVibU=     6.

 Data for Electric Dipole
 ------------------------
 Property available.
 Read normal modes, IRwNMS= 10765 IRotNM= 0 NVibU=     6.

 Data for Polarizability Tensor
 ------------------------------
 Property available.
 Read normal modes, IRwNMS= 10765 IRotNM= 0 NVibU=     6.

     ==================================================
        Vibro-Rotational Analysis Based on Symmetry
     ==================================================

 Representation A1  
 ------------------
    Z Translation
    3 Vibrations with frequencies:
   3084.54   1996.53   1652.15

 Representation A2  
 ------------------
    X Rotation
 No Vibration

 Representation B1  
 ------------------
    X Translation
    Y Rotation
    1 Vibrations with frequencies:
   1338.08

 Representation B2  
 ------------------
    Y Translation
    Z Rotation
    2 Vibrations with frequencies:
   3152.99   1372.19

 Input/Output information
 ------------------------
 Normal modes will be PRINTED in DESCENDING order (imag. freq. first)
   and sorted by irreducible representation
 The connection between this new numbering (A) and the one used before
   (H) is reported in the present equivalency table:
 ----+------+------+------+------+------+------+
 (H) |     1|     2|     3|     4|     5|     6|
 (A) |     4|     6|     3|     2|     1|     5|
 ----+------+------+------+------+------+------+
 
 Normal modes will be READ in ASCENDING order (imag. freq. first)

 TIP: To use the same numbering as in the whole output, use the option
      "Print=NMOrder=AscNoIrrep" in the "ReadAnharm section"

 TIP: To use the same numbering for reading and printing, use the option
      "DataSrc=NMOrder=Print" in the "ReadAnharm section"

 Analysis of symmetry-allowed terms
 ----------------------------------
 Symmetry allowed Coriolis couplings
  X     5     4  A2  B2  B1  
  X     6     4  A2  B2  B1  
  Y     4     1  B1  B1  A1  
  Y     4     2  B1  B1  A1  
  Y     4     3  B1  B1  A1  
  Z     5     1  B2  B2  A1  
  Z     5     2  B2  B2  A1  
  Z     5     3  B2  B2  A1  
  Z     6     1  B2  B2  A1  
  Z     6     2  B2  B2  A1  
  Z     6     3  B2  B2  A1  

 Symmetry allowed third derivatives
     1     1     1  A1  A1  A1  
     2     1     1  A1  A1  A1  
     2     2     1  A1  A1  A1  
     2     2     2  A1  A1  A1  
     3     1     1  A1  A1  A1  
     3     2     1  A1  A1  A1  
     3     2     2  A1  A1  A1  
     3     3     1  A1  A1  A1  
     3     3     2  A1  A1  A1  
     3     3     3  A1  A1  A1  
     4     4     1  B1  B1  A1  
     4     4     2  B1  B1  A1  
     4     4     3  B1  B1  A1  
     5     5     1  B2  B2  A1  
     5     5     2  B2  B2  A1  
     5     5     3  B2  B2  A1  
     6     5     1  B2  B2  A1  
     6     5     2  B2  B2  A1  
     6     5     3  B2  B2  A1  
     6     6     1  B2  B2  A1  
     6     6     2  B2  B2  A1  
     6     6     3  B2  B2  A1  

 Symmetry allowed (iijk) fourth derivatives
     1     1     1     1  A1  A1  A1  A1  
     2     1     1     1  A1  A1  A1  A1  
     2     2     1     1  A1  A1  A1  A1  
     2     2     2     1  A1  A1  A1  A1  
     2     2     2     2  A1  A1  A1  A1  
     3     1     1     1  A1  A1  A1  A1  
     3     2     1     1  A1  A1  A1  A1  
     3     2     2     1  A1  A1  A1  A1  
     3     2     2     2  A1  A1  A1  A1  
     3     3     1     1  A1  A1  A1  A1  
     3     3     2     1  A1  A1  A1  A1  
     3     3     2     2  A1  A1  A1  A1  
     3     3     3     1  A1  A1  A1  A1  
     3     3     3     2  A1  A1  A1  A1  
     3     3     3     3  A1  A1  A1  A1  
     4     4     1     1  B1  B1  A1  A1  
     4     4     2     1  B1  B1  A1  A1  
     4     4     2     2  B1  B1  A1  A1  
     4     4     3     1  B1  B1  A1  A1  
     4     4     3     2  B1  B1  A1  A1  
     4     4     3     3  B1  B1  A1  A1  
     4     4     4     4  B1  B1  B1  B1  
     5     5     1     1  B2  B2  A1  A1  
     5     5     2     1  B2  B2  A1  A1  
     5     5     2     2  B2  B2  A1  A1  
     5     5     3     1  B2  B2  A1  A1  
     5     5     3     2  B2  B2  A1  A1  
     5     5     3     3  B2  B2  A1  A1  
     5     5     4     4  B2  B2  B1  B1  
     5     5     5     5  B2  B2  B2  B2  
     6     5     1     1  B2  B2  A1  A1  
     6     5     2     2  B2  B2  A1  A1  
     6     5     3     3  B2  B2  A1  A1  
     6     5     4     4  B2  B2  B1  B1  
     6     5     5     5  B2  B2  B2  B2  
     6     6     1     1  B2  B2  A1  A1  
     6     6     2     1  B2  B2  A1  A1  
     6     6     2     2  B2  B2  A1  A1  
     6     6     3     1  B2  B2  A1  A1  
     6     6     3     2  B2  B2  A1  A1  
     6     6     3     3  B2  B2  A1  A1  
     6     6     4     4  B2  B2  B1  B1  
     6     6     5     5  B2  B2  B2  B2  
     6     6     6     5  B2  B2  B2  B2  
     6     6     6     6  B2  B2  B2  B2  

                             Possible   Symmetry allowed
 Coriolis couplings:            63           11
 Third derivatives :            56           22
 Fourth derivatives: total     126           48
                     (ii|jj)    21           21
                     (ii|jk)    90           24

 Eckart Orientation
 ------------------
 Atom           X                  Y                  Z
 ----------------------------------------------------------------
  O       0.0000000000000    0.0000000000000    0.5883085953873
  C      -0.0000000000000   -0.0000000000000   -0.5881393435430
  H      -0.0000000000000    0.9265868985036   -1.1670049643163
  H       0.0000000000000   -0.9265868985036   -1.1670049643163
 ----------------------------------------------------------------

     ==================================================
                   Coriolis Couplings
     ==================================================

 Coriolis Couplings along the X axis
 -----------------------------------
                1             2             3             4             5 
      1   0.000000D+00
      2   0.000000D+00  0.000000D+00
      3   0.000000D+00  0.000000D+00  0.000000D+00
      4   0.000000D+00  0.000000D+00  0.000000D+00  0.000000D+00
      5  -0.378416D-01  0.428732D+00 -0.902639D+00  0.000000D+00  0.000000D+00
      6  -0.915311D+00  0.347576D+00  0.203463D+00  0.000000D+00  0.000000D+00
                6 
      6   0.000000D+00

 Coriolis Couplings along the Y axis
 -----------------------------------
                1             2             3             4             5 
      1   0.000000D+00
      2   0.000000D+00  0.000000D+00
      3   0.000000D+00  0.000000D+00  0.000000D+00
      4  -0.518811D+00  0.547922D+00 -0.656214D+00  0.000000D+00
      5   0.000000D+00  0.000000D+00  0.000000D+00  0.000000D+00  0.000000D+00
      6   0.000000D+00  0.000000D+00  0.000000D+00  0.000000D+00  0.000000D+00
                6 
      6   0.000000D+00

 Coriolis Couplings along the Z axis
 -----------------------------------
                1             2             3             4             5 
      1   0.000000D+00
      2   0.000000D+00  0.000000D+00
      3   0.000000D+00  0.000000D+00  0.000000D+00
      4   0.000000D+00  0.000000D+00  0.000000D+00  0.000000D+00
      5   0.000000D+00  0.000000D+00  0.000000D+00 -0.846869D+00  0.000000D+00
      6   0.000000D+00  0.000000D+00  0.000000D+00  0.531802D+00  0.000000D+00
                6 
      6   0.000000D+00
 
    6 Coriolis couplings larger than .100D-02 along the X axis
    3 Coriolis couplings larger than .100D-02 along the Y axis
    2 Coriolis couplings larger than .100D-02 along the Z axis

     ==================================================
     Printing Energy derivatives and Coriolis Couplings
     ==================================================

 ........................................................
 :   Reference Energy (a.u.):       -0.113922D+03       :
 :                    (cm-1):       -0.519069D-03       :
 :......................................................:

 ........................................................
 :                   CORIOLIS COUPLINGS                 :
 :......................................................:

    Ax       I      J          Zeta(I,J)

     x       5      1            -0.03784
     x       5      2             0.42873
     x       5      3            -0.90264
     x       6      1            -0.91531
     x       6      2             0.34758
     x       6      3             0.20346
     y       4      1            -0.51881
     y       4      2             0.54792
     y       4      3            -0.65621
     z       5      4            -0.84687
     z       6      4             0.53180

 Num. of Coriolis couplings larger than  0.100D-02: 11 over 63

 ........................................................
 :      QUADRATIC FORCE CONSTANTS IN NORMAL MODES       :
 :                                                      :
 : FI =  Frequency [cm-1]                               :
 : k  =  Force Const.[ attoJ * amu(-1) * ang(-2) ]      :
 : K  =  Force Const.[ Hartrees * amu(-1) * bohr(-2) ]  :
 :......................................................:

      I      J                  FI(I,J)       k(I,J)       K(I,J)

      1      1                 3084.54233      5.60572      0.36006
      2      2                 1996.53002      2.34856      0.15085
      3      3                 1652.15292      1.60824      0.10330
      4      4                 1338.07987      1.05491      0.06776
      5      5                 3152.99353      5.85729      0.37622
      6      6                 1372.19154      1.10938      0.07126

 Num. of 2nd derivatives larger than  0.371D-04: 6 over 21

 ........................................................
 :        CUBIC FORCE CONSTANTS IN NORMAL MODES         :
 :                                                      :
 : FI =  Reduced values [cm-1]  (default input)         :
 : k  =  Cubic Force Const.[AttoJ*amu(-3/2)*Ang(-3)]    :
 : K  =  Cubic Force Const.[Hartree*amu(-3/2)*Bohr(-3)] :
 :......................................................:

      I      J      K          FI(I,J,K)     k(I,J,K)     K(I,J,K)

      1      1      1         -1316.31136    -22.88135     -0.77772
      2      1      1             6.07886      0.08501      0.00289
      2      2      1            60.31740      0.67866      0.02307
      2      2      2          -573.18858     -5.18858     -0.17636
      3      1      1             1.65198      0.02102      0.00071
      3      2      1           -51.05007     -0.52251     -0.01776
      3      2      2          -111.56282     -0.91867     -0.03122
      3      3      1            84.82479      0.78978      0.02684
      3      3      2          -100.34900     -0.75169     -0.02555
      3      3      3            60.77848      0.41415      0.01408
      4      4      1           305.68982      2.30513      0.07835
      4      4      2           -19.43279     -0.11789     -0.00401
      4      4      3            58.78887      0.32444      0.01103
      5      5      1         -1389.23847    -24.68495     -0.83902
      5      5      2           100.76114      1.44043      0.04896
      5      5      3          -135.09396     -1.75680     -0.05971
      6      5      1            15.99977      0.18755      0.00637
      6      5      2          -133.44039     -1.25844     -0.04277
      6      5      3           189.62230      1.62675      0.05529
      6      6      1           224.93109      1.73939      0.05912
      6      6      2           -17.81304     -0.11082     -0.00377
      6      6      3          -110.15824     -0.62344     -0.02119

 Num. of 3rd derivatives larger than  0.371D-04: 22 over 56

 ........................................................
 :                                                      :
 :       QUARTIC FORCE CONSTANTS IN NORMAL MODES        :
 :                                                      :
 : FI =  Reduced values [cm-1]  (default input)         :
 : k  =  Quartic Force Const.[AttoJ*amu(-2)*Ang(-4)]    :
 : K  =  Quartic Force Const.[Hartree*amu(-2)*Bohr(-4)] :
 :......................................................:

      I      J      K      L  FI(I,J,K,L)   k(I,J,K,L)   K(I,J,K,L)

      1      1      1      1    500.69864     83.24949      1.49736
      2      1      1      1     -3.28330     -0.43920     -0.00790
      2      2      1      1    -25.07870     -2.69895     -0.04854
      2      2      2      1    -11.17135     -0.96725     -0.01740
      2      2      2      2    155.93853     10.86248      0.19538
      3      1      1      1     -1.22591     -0.14917     -0.00268
      3      2      1      1     61.16985      5.98846      0.10771
      3      2      2      1    -12.05970     -0.94985     -0.01708
      3      2      2      2     33.34704      2.11310      0.03801
      3      3      1      1   -140.35719    -12.49969     -0.22482
      3      3      2      1     19.81764      1.41990      0.02554
      3      3      2      2     12.35384      0.71212      0.01281
      3      3      3      1    -21.81329     -1.42172     -0.02557
      3      3      3      2     -8.52509     -0.44703     -0.00804
      3      3      3      3     12.19647      0.58178      0.01046
      4      4      1      1   -250.04789    -18.03515     -0.32439
      4      4      2      1     16.82410      0.97627      0.01756
      4      4      2      2    -12.62910     -0.58960     -0.01060
      4      4      3      1    -15.00714     -0.79218     -0.01425
      4      4      3      2    -10.41906     -0.44248     -0.00796
      4      4      3      3     10.34091      0.39950      0.00719
      4      4      4      4    116.76192      3.65333      0.06571
      5      5      1      1    543.54081     92.37824      1.66155
      5      5      2      1    -20.53014     -2.80719     -0.05049
      5      5      2      2    -47.90313     -5.26971     -0.09478
      5      5      3      1     42.07857      5.23393      0.09414
      5      5      3      2     85.79700      8.58582      0.15443
      5      5      3      3   -188.46267    -17.15625     -0.30858
      5      5      4      4   -294.49657    -21.71246     -0.39053
      5      5      5      5    579.16750    100.61762      1.80975
      6      5      1      1     -8.27762     -0.92809     -0.01669
      6      5      2      2     -1.86219     -0.13514     -0.00243
      6      5      3      3    -15.19766     -0.91268     -0.01642
      6      5      4      4      2.83165      0.13773      0.00248
      6      5      5      5     46.01336      5.27351      0.09485
      6      6      1      1   -198.18817    -14.65909     -0.26366
      6      6      2      1      8.69219      0.51725      0.00930
      6      6      2      2     -2.05568     -0.09842     -0.00177
      6      6      3      1     28.47441      1.54139      0.02772
      6      6      3      2    -17.60189     -0.76659     -0.01379
      6      6      3      3     36.55250      1.44812      0.02605
      6      6      4      4     25.10645      0.80557      0.01449
      6      6      5      5   -207.67702    -15.70182     -0.28242
      6      6      6      5     28.74358      1.43367      0.02579
      6      6      6      6     82.39153      2.71104      0.04876

 Num. of 4th derivatives larger than  0.371D-04: 45 over 126

 ........................................................
 :                                                      :
 :      ELECTRIC-FIELD PROPERTIES AND DERIVATIVES       :
 :                                                      :
 :......................................................:

 Electric Dipole
 ---------------

 Unit of the property: Debye
 ------------------------------------------------------------------------------
    |    i      j      k   |              X              Y              Z
 ------------------------------------------------------------------------------
 P0 |                      |        -0.433012D-15  -0.493387D-15  -0.268208D+01
 P1 |      1               |        -0.226660D-15  -0.423884D-13   0.655889D+00
 P1 |      2               |        -0.255559D-15  -0.269379D-14  -0.102134D+01
 P1 |      3               |        -0.325750D-15   0.669472D-14  -0.348574D+00
 P1 |      4               |         0.134773D+00   0.935741D-15  -0.191703D-15
 P1 |      5               |         0.764310D-15  -0.832876D+00  -0.273731D-13
 P1 |      6               |        -0.551017D-15   0.378853D+00   0.682476D-14
 P2 |      1      1        |         0.756778D-13  -0.224668D-12   0.394977D+00
 P2 |      2      1        |         0.104810D-14  -0.114977D-11  -0.522669D+00
 P2 |      2      2        |         0.747981D-13   0.613958D-12   0.479877D+00
 P2 |      3      1        |        -0.451924D-13  -0.658274D-12   0.535637D-02
 P2 |      3      2        |         0.127642D-14   0.742922D-12  -0.199393D+00
 P2 |      3      3        |        -0.703175D-13  -0.343741D-12   0.311530D+00
 P2 |      4      1        |        -0.322800D-01   0.639596D-12   0.381980D-12
 P2 |      4      2        |         0.201263D+00  -0.344838D-12  -0.307098D-12
 P2 |      4      3        |        -0.571806D-01   0.648557D-12   0.405664D-12
 P2 |      4      4        |        -0.184165D-14  -0.428403D-12   0.595071D+00
 P2 |      5      1        |         0.236826D-13  -0.938950D+00   0.175948D-11
 P2 |      5      2        |         0.541284D-13   0.937704D+00   0.541730D-12
 P2 |      5      3        |         0.373246D-13  -0.481984D+00  -0.208630D-11
 P2 |      5      4        |        -0.545772D-12  -0.124201D-12  -0.552498D-13
 P2 |      5      5        |         0.211572D-12   0.597521D-11   0.109475D+01
 P2 |      6      1        |        -0.108100D-12   0.201885D+00   0.670505D-12
 P2 |      6      2        |         0.486422D-13  -0.245423D-01   0.140045D-11
 P2 |      6      3        |        -0.152094D-12  -0.267675D+00  -0.381175D-12
 P2 |      6      4        |        -0.590007D-12  -0.298587D-12   0.156426D-12
 P2 |      6      5        |        -0.681551D-13   0.105006D-10  -0.197490D+00
 P2 |      6      6        |         0.900207D-13   0.113321D-10   0.143107D+00
 P3 |      1      1      1 |        -0.260046D-15   0.496004D-15  -0.219867D+00
 P3 |      1      1      2 |        -0.494661D-16   0.943502D-16  -0.418233D-01
 P3 |      1      1      3 |        -0.377782D-16   0.720570D-16  -0.319412D-01
 P3 |      1      1      4 |        -0.667787D-01  -0.170520D-15   0.789820D-16
 P3 |      1      1      5 |         0.873261D-15  -0.341984D+00  -0.771491D-15
 P3 |      1      1      6 |        -0.287884D-15   0.112740D+00   0.254334D-15
 P3 |      2      2      1 |         0.214538D-15  -0.409202D-15   0.181390D+00
 P3 |      2      2      2 |        -0.326888D-15   0.623496D-15  -0.276381D+00
 P3 |      2      2      3 |         0.115854D-15  -0.220976D-15   0.979534D-01
 P3 |      2      2      4 |        -0.876136D-01  -0.223723D-15   0.103624D-15
 P3 |      2      2      5 |         0.114962D-14  -0.450211D+00  -0.101564D-14
 P3 |      2      2      6 |         0.284062D-15  -0.111244D+00  -0.250957D-15
 P3 |      3      3      1 |         0.000000D+00   0.000000D+00   0.000000D+00
 P3 |      3      3      2 |        -0.201968D-16   0.385227D-16  -0.170762D-01
 P3 |      3      3      3 |        -0.333039D-15   0.635228D-15  -0.281582D+00
 P3 |      3      3      4 |         0.597330D-01   0.152529D-15  -0.706487D-16
 P3 |      3      3      5 |         0.266152D-15  -0.104230D+00  -0.235134D-15
 P3 |      3      3      6 |         0.861327D-15  -0.337311D+00  -0.760948D-15
 P3 |      4      4      1 |        -0.316839D-15   0.604328D-15  -0.267885D+00
 P3 |      4      4      2 |         0.859509D-16  -0.163940D-15   0.726708D-01
 P3 |      4      4      3 |        -0.167642D-15   0.319755D-15  -0.141740D+00
 P3 |      4      4      4 |         0.140422D+00   0.358570D-15  -0.166083D-15
 P3 |      4      4      5 |         0.658444D-15  -0.257858D+00  -0.581709D-15
 P3 |      4      4      6 |        -0.120483D-15   0.471833D-01   0.106442D-15
 P3 |      5      5      1 |         0.278033D-15  -0.530312D-15   0.235075D+00
 P3 |      5      5      2 |        -0.102758D-14   0.195998D-14  -0.868812D+00
 P3 |      5      5      3 |         0.912552D-15  -0.174057D-14   0.771556D+00
 P3 |      5      5      4 |        -0.161249D+00  -0.411751D-15   0.190716D-15
 P3 |      5      5      5 |        -0.116145D-14   0.454843D+00   0.102609D-14
 P3 |      5      5      6 |        -0.199972D-14   0.783127D+00   0.176668D-14
 P3 |      6      6      1 |        -0.898686D-16   0.171413D-15  -0.759832D-01
 P3 |      6      6      2 |         0.203746D-16  -0.388619D-16   0.172266D-01
 P3 |      6      6      3 |        -0.322398D-15   0.614932D-15  -0.272585D+00
 P3 |      6      6      4 |         0.243099D-01   0.620755D-16  -0.287523D-16
 P3 |      6      6      5 |         0.607949D-15  -0.238083D+00  -0.537098D-15
 P3 |      6      6      6 |        -0.185410D-15   0.726099D-01   0.163803D-15

 Polarizability Tensor
 ---------------------

 Unit of the property: a.u.
 ------------------------------------------------------------------------------
    |    i      j      k   |     |        X              Y              Z
 ------------------------------------------------------------------------------
    |                      |  X  |   0.107800D+02
 P0 |                      |  Y  |  -0.276446D-14   0.151718D+02
    |                      |  Z  |   0.161589D-14   0.334197D-14   0.198594D+02
    |                      |  X  |   0.139414D+01
 P1 |      1               |  Y  |  -0.196434D-13   0.110285D+02
    |                      |  Z  |  -0.194120D-13   0.877825D-12   0.420044D+01
    |                      |  X  |   0.130243D+01
 P1 |      2               |  Y  |   0.323055D-15  -0.734232D+00
    |                      |  Z  |  -0.387061D-14  -0.417239D-13   0.314458D+01
    |                      |  X  |   0.209883D+00
 P1 |      3               |  Y  |  -0.134893D-15  -0.716596D+00
    |                      |  Z  |   0.699445D-14   0.131988D-12   0.298207D+01
    |                      |  X  |  -0.122866D-13
 P1 |      4               |  Y  |  -0.265582D-12  -0.646886D-13
    |                      |  Z  |  -0.911392D-01  -0.477001D-14   0.244024D-13
    |                      |  X  |  -0.135253D-12
 P1 |      5               |  Y  |   0.100546D-13  -0.225201D-11
    |                      |  Z  |   0.251379D-13  -0.638993D+01  -0.370779D-12
    |                      |  X  |  -0.521805D-13
 P1 |      6               |  Y  |   0.791690D-15   0.213786D-12
    |                      |  Z  |  -0.636095D-14  -0.876229D+00  -0.317036D-12
    |                      |  X  |   0.865190D+00
 P2 |      1      1        |  Y  |   0.186286D-10   0.129402D+02
    |                      |  Z  |  -0.208650D-10  -0.142362D-09   0.241389D+01
    |                      |  X  |  -0.373631D+00
 P2 |      2      1        |  Y  |  -0.347524D-11  -0.184152D+01
    |                      |  Z  |  -0.111507D-10   0.898235D-10  -0.141846D+01
    |                      |  X  |   0.287092D+00
 P2 |      2      2        |  Y  |  -0.207886D-11   0.206367D+01
    |                      |  Z  |  -0.101509D-10  -0.216674D-10   0.291438D+01
    |                      |  X  |  -0.870404D-01
 P2 |      3      1        |  Y  |  -0.910880D-11  -0.231578D+01
    |                      |  Z  |   0.608194D-11  -0.664208D-12   0.187473D+01
    |                      |  X  |  -0.397891D+00
 P2 |      3      2        |  Y  |   0.995293D-12  -0.122615D+01
    |                      |  Z  |   0.103750D-10   0.357881D-10  -0.103096D+01
    |                      |  X  |   0.862735D+00
 P2 |      3      3        |  Y  |  -0.955005D-12   0.362676D+01
    |                      |  Z  |   0.931174D-11   0.176767D-11   0.260604D+01
    |                      |  X  |   0.280515D-11
 P2 |      4      1        |  Y  |   0.238684D-10  -0.303673D-09
    |                      |  Z  |  -0.220961D+01  -0.996099D-10  -0.205751D-10
    |                      |  X  |  -0.358403D-10
 P2 |      4      2        |  Y  |  -0.346595D-10  -0.730227D-10
    |                      |  Z  |   0.120881D+01   0.144326D-11  -0.719420D-10
    |                      |  X  |   0.401350D-10
 P2 |      4      3        |  Y  |   0.314019D-11   0.926015D-10
    |                      |  Z  |  -0.375351D+00  -0.892079D-11   0.113742D-09
    |                      |  X  |   0.277491D+01
 P2 |      4      4        |  Y  |   0.578343D-10   0.380240D+01
    |                      |  Z  |   0.112599D-10   0.201048D-10   0.234696D+01
    |                      |  X  |   0.525670D-10
 P2 |      5      1        |  Y  |  -0.286917D-11   0.851572D-10
    |                      |  Z  |  -0.166811D-10  -0.583995D+01   0.116435D-09
    |                      |  X  |  -0.124608D-10
 P2 |      5      2        |  Y  |  -0.560943D-11  -0.233381D-09
    |                      |  Z  |   0.711157D-11   0.245026D+01  -0.941667D-10
    |                      |  X  |   0.199130D-10
 P2 |      5      3        |  Y  |   0.400816D-11   0.916282D-10
    |                      |  Z  |   0.578128D-11  -0.189032D+01   0.535034D-10
    |                      |  X  |   0.241749D-10
 P2 |      5      4        |  Y  |   0.247282D+01   0.180172D-09
    |                      |  Z  |   0.695273D-10   0.124262D-09   0.767702D-10
    |                      |  X  |   0.187636D+01
 P2 |      5      5        |  Y  |   0.171919D-10   0.554621D+01
    |                      |  Z  |   0.275249D-10  -0.177717D-10   0.666828D+01
    |                      |  X  |  -0.248517D-10
 P2 |      6      1        |  Y  |   0.884493D-11  -0.261124D-09
    |                      |  Z  |  -0.761460D-11  -0.138114D+01  -0.725956D-10
    |                      |  X  |  -0.277851D-10
 P2 |      6      2        |  Y  |   0.434974D-11   0.597508D-10
    |                      |  Z  |   0.185591D-11   0.310021D+00   0.212619D-10
    |                      |  X  |   0.186322D-10
 P2 |      6      3        |  Y  |  -0.716453D-11   0.366400D-10
    |                      |  Z  |   0.554929D-11  -0.928815D+00   0.195978D-10
    |                      |  X  |  -0.840961D-11
 P2 |      6      4        |  Y  |  -0.380130D+00  -0.396162D-10
    |                      |  Z  |  -0.358681D-10   0.487065D-11  -0.194674D-10
    |                      |  X  |  -0.306366D+00
 P2 |      6      5        |  Y  |   0.341659D-11  -0.337543D+01
    |                      |  Z  |  -0.582705D-11   0.165797D-09   0.262904D+01
    |                      |  X  |   0.100003D+01
 P2 |      6      6        |  Y  |   0.133318D-11   0.343399D+01
    |                      |  Z  |   0.579012D-13   0.873343D-10   0.230771D+01
    |                      |  X  |  -0.127175D+00
 P3 |      1      1      1 |  Y  |  -0.310676D-13   0.120395D+02
    |                      |  Z  |  -0.493409D-15   0.283881D-13  -0.544349D+00
    |                      |  X  |  -0.181704D+00
 P3 |      1      1      2 |  Y  |   0.442496D-14  -0.191460D+01
    |                      |  Z  |   0.871983D-15  -0.557247D-14   0.555551D+00
    |                      |  X  |   0.204511D+00
 P3 |      1      1      3 |  Y  |   0.882175D-14  -0.325024D+01
    |                      |  Z  |   0.631195D-15  -0.899758D-14   0.738181D+00
    |                      |  X  |   0.702522D-15
 P3 |      1      1      4 |  Y  |  -0.669984D-15  -0.342163D-29
    |                      |  Z  |   0.296988D+00   0.758364D-15  -0.702522D-15
    |                      |  X  |   0.187612D-28
 P3 |      1      1      5 |  Y  |  -0.367361D-14   0.140139D-13
    |                      |  Z  |   0.793125D-14  -0.310601D+01  -0.140139D-13
    |                      |  X  |   0.128022D-28
 P3 |      1      1      6 |  Y  |  -0.250679D-14   0.956275D-14
    |                      |  Z  |   0.541210D-14  -0.211947D+01  -0.956275D-14
    |                      |  X  |   0.116401D+00
 P3 |      2      2      1 |  Y  |  -0.419665D-14   0.175988D+01
    |                      |  Z  |  -0.837375D-15   0.530476D-14  -0.591594D+00
    |                      |  X  |  -0.288064D+00
 P3 |      2      2      2 |  Y  |   0.352257D-14  -0.166756D+01
    |                      |  Z  |   0.439749D-15  -0.395081D-14   0.837410D-01
    |                      |  X  |  -0.196280D+00
 P3 |      2      2      3 |  Y  |  -0.116913D-14   0.261571D+00
    |                      |  Z  |   0.725580D-15  -0.351071D-15   0.417193D+00
    |                      |  X  |  -0.417166D-15
 P3 |      2      2      4 |  Y  |   0.397845D-15   0.203180D-29
    |                      |  Z  |  -0.176355D+00  -0.450326D-15   0.417166D-15
    |                      |  X  |   0.101421D-28
 P3 |      2      2      5 |  Y  |  -0.198591D-14   0.757573D-14
    |                      |  Z  |   0.428753D-14  -0.167907D+01  -0.757573D-14
    |                      |  X  |   0.377937D-29
 P3 |      2      2      6 |  Y  |  -0.740033D-15   0.282303D-14
    |                      |  Z  |   0.159771D-14  -0.625693D+00  -0.282303D-14
    |                      |  X  |  -0.375249D+00
 P3 |      3      3      1 |  Y  |  -0.681197D-14   0.229244D+01
    |                      |  Z  |   0.488105D-15   0.508711D-14   0.374405D-01
    |                      |  X  |   0.142145D+00
 P3 |      3      3      2 |  Y  |   0.196266D-14  -0.626467D+00
    |                      |  Z  |  -0.175957D-14   0.162222D-14  -0.134556D+01
    |                      |  X  |  -0.189066D+00
 P3 |      3      3      3 |  Y  |   0.409036D-14  -0.179092D+01
    |                      |  Z  |   0.292173D-14  -0.918649D-14   0.228124D+01
    |                      |  X  |  -0.132260D-14
 P3 |      3      3      4 |  Y  |   0.126135D-14   0.644173D-29
    |                      |  Z  |  -0.559126D+00  -0.142774D-14   0.132260D-14
    |                      |  X  |   0.115575D-28
 P3 |      3      3      5 |  Y  |  -0.226305D-14   0.863294D-14
    |                      |  Z  |   0.488587D-14  -0.191339D+01  -0.863294D-14
    |                      |  X  |   0.762489D-29
 P3 |      3      3      6 |  Y  |  -0.149302D-14   0.569548D-14
    |                      |  Z  |   0.322339D-14  -0.126234D+01  -0.569548D-14
    |                      |  X  |   0.833324D+00
 P3 |      4      4      1 |  Y  |  -0.384887D-14   0.234061D+01
    |                      |  Z  |  -0.287698D-14   0.888779D-14  -0.159915D+01
    |                      |  X  |  -0.460166D+00
 P3 |      4      4      2 |  Y  |   0.431006D-15  -0.628956D+00
    |                      |  Z  |   0.134363D-14  -0.294357D-14   0.675860D+00
    |                      |  X  |  -0.245384D-01
 P3 |      4      4      3 |  Y  |   0.214249D-14  -0.863574D+00
    |                      |  Z  |   0.115201D-14  -0.409012D-14   0.949481D+00
    |                      |  X  |  -0.332885D-14
 P3 |      4      4      4 |  Y  |   0.317468D-14   0.162132D-28
    |                      |  Z  |  -0.140726D+01  -0.359346D-14   0.332885D-14
    |                      |  X  |   0.671368D-29
 P3 |      4      4      5 |  Y  |  -0.131460D-14   0.501484D-14
    |                      |  Z  |   0.283818D-14  -0.111148D+01  -0.501484D-14
    |                      |  X  |   0.407191D-29
 P3 |      4      4      6 |  Y  |  -0.797315D-15   0.304155D-14
    |                      |  Z  |   0.172138D-14  -0.674124D+00  -0.304155D-14
    |                      |  X  |   0.231624D+00
 P3 |      5      5      1 |  Y  |  -0.253168D-15   0.330769D+00
    |                      |  Z  |   0.340869D-14  -0.627796D-14   0.311365D+01
    |                      |  X  |  -0.804893D+00
 P3 |      5      5      2 |  Y  |  -0.216016D-14   0.410652D-01
    |                      |  Z  |  -0.268281D-14   0.702553D-14  -0.307319D+01
    |                      |  X  |   0.404873D+00
 P3 |      5      5      3 |  Y  |   0.158411D-14  -0.215493D+00
    |                      |  Z  |   0.318532D-14  -0.747508D-14   0.309804D+01
    |                      |  X  |  -0.350695D-14
 P3 |      5      5      4 |  Y  |   0.334453D-14   0.170806D-28
    |                      |  Z  |  -0.148255D+01  -0.378572D-14   0.350695D-14
    |                      |  X  |  -0.714192D-29
 P3 |      5      5      5 |  Y  |   0.139845D-14  -0.533472D-14
    |                      |  Z  |  -0.301922D-14   0.118238D+01   0.533472D-14
    |                      |  X  |  -0.765086D-29
 P3 |      5      5      6 |  Y  |   0.149811D-14  -0.571488D-14
    |                      |  Z  |  -0.323437D-14   0.126664D+01   0.571488D-14
    |                      |  X  |  -0.154096D+00
 P3 |      6      6      1 |  Y  |  -0.647570D-14   0.238190D+01
    |                      |  Z  |   0.128326D-14   0.327338D-14   0.930888D+00
    |                      |  X  |   0.238498D+00
 P3 |      6      6      2 |  Y  |   0.163723D-14  -0.402669D+00
    |                      |  Z  |  -0.181302D-14   0.201167D-14  -0.129439D+01
    |                      |  X  |  -0.587215D+00
 P3 |      6      6      3 |  Y  |   0.480468D-14  -0.246881D+01
    |                      |  Z  |   0.263780D-14  -0.927600D-14   0.164303D+01
    |                      |  X  |  -0.132994D-14
 P3 |      6      6      4 |  Y  |   0.126834D-14   0.647745D-29
    |                      |  Z  |  -0.562226D+00  -0.143565D-14   0.132994D-14
    |                      |  X  |   0.280231D-29
 P3 |      6      6      5 |  Y  |  -0.548717D-15   0.209321D-14
    |                      |  Z  |   0.118467D-14  -0.463936D+00  -0.209321D-14
    |                      |  X  |   0.538114D-29
 P3 |      6      6      6 |  Y  |  -0.105367D-14   0.401949D-14
    |                      |  Z  |   0.227486D-14  -0.890874D+00  -0.401949D-14

     ==================================================
                     Input for POLYMODE
     ==================================================

 ***************** cut here for POLYMODE input *****************
  6,  1,  6, 22, 45,  0, 11,  5,  0
SCF-CI
          Input generated by DiNa
  1, 1,  0.185851D-04 /
  2, 2,  0.195448D-04 /
  3, 3,  0.283336D-04 /
  4, 4,  0.413764D-04 /
  5, 5,  0.987604D-04 /
  6, 6,  0.103192D-03 /
  1, 1, 3, 0.708454D-07 /
  2, 2, 3, -.136134D-06 /
  3, 3, 3, 0.301449D-07 /
  1, 1, 4, -.257433D-07 /
  2, 2, 4, -.241991D-07 /
  3, 3, 4, -.164138D-06 /
  3, 4, 4, -.200599D-06 /
  4, 4, 4, -.377658D-06 /
  1, 1, 5, 0.503347D-06 /
  2, 2, 5, 0.379812D-06 /
  3, 3, 5, 0.172456D-06 /
  3, 4, 5, -.228189D-06 /
  4, 4, 5, 0.148191D-06 /
  3, 5, 5, 0.458911D-08 /
  4, 5, 5, 0.185635D-07 /
  5, 5, 5, -.166545D-05 /
  2, 3, 6, 0.710432D-06 /
  2, 4, 6, -.549583D-06 /
  2, 5, 6, 0.819063D-07 /
  3, 6, 6, -.383613D-06 /
  4, 6, 6, 0.314531D-06 /
  5, 6, 6, -.539019D-05 /
  1, 1, 1, 1, 0.823950D-09 /
  1, 1, 2, 2, 0.109011D-08 /
  2, 2, 2, 2, 0.611432D-09 /
  1, 1, 3, 3, 0.540603D-09 /
  2, 2, 3, 3, 0.195961D-08 /
  3, 3, 3, 3, 0.131211D-09 /
  1, 1, 4, 4, -.797842D-09 /
  2, 2, 4, 4, -.133178D-09 /
  3, 3, 4, 4, 0.963641D-09 /
  3, 4, 4, 4, 0.190630D-08 /
  4, 4, 4, 4, 0.244986D-08 /
  1, 1, 5, 5, -.244052D-07 /
  2, 2, 5, 5, -.198367D-07 /
  3, 3, 5, 5, -.169146D-07 /
  3, 4, 5, 5, 0.162072D-07 /
  4, 4, 5, 5, -.365223D-08 /
  3, 5, 5, 5, -.134575D-09 /
  4, 5, 5, 5, -.396215D-09 /
  5, 5, 5, 5, 0.187756D-07 /
  1, 1, 6, 6, -.293814D-07 /
  2, 2, 6, 6, -.212478D-07 /
  3, 3, 6, 6, -.232159D-07 /
  3, 4, 6, 6, 0.232367D-07 /
  4, 4, 6, 6, -.713099D-08 /
  3, 5, 6, 6, 0.141652D-07 /
  4, 5, 6, 6, -.759741D-08 /
  5, 5, 6, 6, 0.125007D-06 /
  2, 6, 6, 6, 0.475742D-08 /
  6, 6, 6, 6, 0.226927D-07 /
 0.921931D+05,0.809278D+05,0.112654D+05 /
  3, 7, 2, -.203463D+00 /
  4, 7, 2, -.347576D+00 /
  5, 7, 2, 0.915311D+00 /
  6, 7, 3, 0.902639D+00 /
  6, 7, 4, -.428732D+00 /
  6, 7, 5, 0.378416D-01 /
  3, 7, 1, 0.656214D+00 /
  4, 7, 1, -.547922D+00 /
  5, 7, 1, 0.518811D+00 /
  2, 7, 1, -.531802D+00 /
  6, 7, 1, 0.846869D+00 /
 ***************** cut here for POLYMODE input *****************

     ==================================================
      Inertia Moments Derivatives w.r.t. Normal Modes
     ==================================================

 Units: amu^1/2.Ang

                 Ixx        Ixy        Iyy        Ixz        Iyz        Izz
 Q(     1)     3.01793    0.00000    0.78800   -0.00000    0.00000    2.22993
 Q(     2)     6.27641    0.00000    5.67303   -0.00000   -0.00000    0.60338
 Q(     3)     2.85463   -0.00000    4.11383   -0.00000    0.00000   -1.25921
 Q(     4)    -0.00000    0.00000    0.00000    0.00000    0.00000   -0.00000
 Q(     5)    -0.00000    0.00000   -0.00000   -0.00000    1.31091   -0.00000
 Q(     6)    -0.00000    0.00000   -0.00000   -0.00000    2.08756    0.00000

     ==================================================
               Vibro-rotational Alpha Matrix
     ==================================================

 Vibro-Rot alpha Matrix (in cm^-1)
 ---------------------------------
                 A(z)           B(y)           C(x)
 Q(     1)        0.14725        0.00046        0.00214
 Q(     2)        0.00134        0.00658        0.00761
 Q(     3)       -0.06726       -0.01174        0.00266
 Q(     4)        3.29358        0.01396       -0.00159
 Q(     5)        0.06931        0.00175        0.00128
 Q(     6)       -3.26333       -0.00289        0.00591

 Vibro-Rot alpha Matrix (in MHz)
 -------------------------------
                 A(z)           B(y)           C(x)
 Q(     1)     4414.45169       13.72941       64.26714
 Q(     2)       40.18136      197.26366      228.08242
 Q(     3)    -2016.47761     -351.92766       79.62414
 Q(     4)    98738.99333      418.38898      -47.67264
 Q(     5)     2077.99520       52.35867       38.41704
 Q(     6)   -97832.22382      -86.74581      177.11062

     ==================================================
          Quartic Centrifugal Distortion Constants
     ==================================================

 NOTE: Values in Cartesian coords. refer to the structure in Eckart orientation.

 Quartic Centrifugal Distortion Constants Tau (in cm^-1)
 -------------------------------------------------------

 IXYZ = 1 JXYZ = 1
                 1             2             3 
      1  -0.658505D-05 -0.131887D-21  0.915443D-20
      2  -0.131887D-21 -0.833549D-05 -0.305990D-19
      3   0.915443D-20 -0.305990D-19 -0.108621D-04

 IXYZ = 2 JXYZ = 1
                 1             2             3 
      1  -0.131887D-21 -0.430662D-36  0.308442D-36
      2  -0.430662D-36  0.429463D-21 -0.186425D-20
      3   0.308442D-36 -0.186425D-20 -0.309961D-19

 IXYZ = 2 JXYZ = 2
                 1             2             3 
      1  -0.833549D-05  0.429463D-21  0.128153D-19
      2   0.429463D-21 -0.115030D-04  0.558548D-19
      3   0.128153D-19  0.558548D-19  0.353700D-04

 IXYZ = 3 JXYZ = 1
                 1             2             3 
      1   0.915443D-20  0.308442D-36 -0.587957D-34
      2   0.308442D-36  0.128153D-19  0.645241D-19
      3  -0.587957D-34  0.645241D-19 -0.482432D-19

 IXYZ = 3 JXYZ = 2
                 1             2             3 
      1  -0.305990D-19 -0.186425D-20  0.645241D-19
      2  -0.186425D-20  0.558548D-19 -0.102974D-03
      3   0.645241D-19 -0.102974D-03 -0.485432D-17

 IXYZ = 3 JXYZ = 3
                 1             2             3 
      1  -0.108621D-04 -0.309961D-19 -0.482432D-19
      2  -0.309961D-19  0.353700D-04 -0.485432D-17
      3  -0.482432D-19 -0.485432D-17 -0.255280D-02

 Quartic Centrifugal Distortion Constants Tau Prime
 --------------------------------------------------
                      cm^-1                    MHz
 - Eckart orientation -
 TauP xxxx     -0.6585053325D-05        -0.1974149322D+00
 TauP xxyy     -0.8335490628D-05        -0.2498917224D+00
 TauP yyyy     -0.1150303559D-04        -0.3448523313D+00
 TauP xxzz     -0.1086207873D-04        -0.3256369280D+00
 TauP yyzz     -0.1705776243D-03        -0.5113788527D+01
 TauP zzzz     -0.2552798580D-02        -0.7653097610D+02

 - Spectroscopic orientation -
 TauP aaaa     -0.2552798580D-02        -0.7653097610D+02
 TauP bbaa     -0.1705776243D-03        -0.5113788527D+01
 TauP bbbb     -0.1150303559D-04        -0.3448523313D+00
 TauP ccaa     -0.1086207873D-04        -0.3256369280D+00
 TauP ccbb     -0.8335490628D-05        -0.2498917224D+00
 TauP cccc     -0.6585053325D-05        -0.1974149322D+00

 Quartic Centrifugal Distortion Constants Tau Prime (Spectroscopic orient.)
 --------------------------------------------------------------------------
                      cm^-1                    MHz
 TauP xxxx     -0.6585053325D-05        -0.1974149322D+00
 TauP xxyy     -0.8335490628D-05        -0.2498917224D+00
 TauP yyyy     -0.1150303559D-04        -0.3448523313D+00
 TauP xxzz     -0.1086207873D-04        -0.3256369280D+00
 TauP yyzz     -0.1705776243D-03        -0.5113788527D+01
 TauP zzzz     -0.2552798580D-02        -0.7653097610D+02

 Asymmetric Top Reduction
 ------------------------
       Asymmetry parameter     | Reference formula
  Kappa :        -0.9612451937 |    [2B-A-C]/[A-C]
  Delta :         0.0193774032 |       [B-C]/[A-C]
  Sigma :      -102.1344388996 | [2A'-B'-C']/[B'-C']

 (A,B,C)   : equilibrium rotational constants
 (A',B',C'): effective rotational constants

 Constants in the Asymmetrically reduced Hamiltonian
 ---------------------------------------------------
                        cm^-1                   MHz
  DELTA J  :    0.2261011114D-05         0.6778340794D-01
  DELTA K  :    0.5952778687D-03         0.1784598155D+02
  DELTA JK :    0.4066076507D-04         0.1218979071D+01
  delta J  :   -0.3073738914D-06        -0.9214837442D-02
  delta K  :   -0.2870303776D-04        -0.8604954244D+00

 Effective Rotational Constants
 (Include Terms due to Quartic Centrifugal Distortion Constants)
 ---------------------------------------------------------------
           Be in cm^-1             B(A) in cm^-1            B(A) in MHz
 a          9.741123456             9.741123102             292031.52385
 b          1.355991088             1.356009357              40652.13782
 c          1.190298301             1.190280387              35683.70828

 Nielsen Centrifugal Distortion Constants
 ----------------------------------------
                cm^-1                    MHz
 DJ     0.2216726500D-05         0.6645578861D-01
 DJK    0.4092647276D-04         0.1226944787D+01
 DK     0.5950564457D-03         0.1783934345D+02
 dJ    -0.3073738914D-06        -0.9214837442D-02
 R5     0.9828534653D-05         0.2946520562D+00
 R6    -0.2214230713D-07        -0.6638096680D-03

 Constants in the Symmetrically Reduced Hamiltonian
 --------------------------------------------------
                    cm^-1                     MHz
  D J  :    0.2120495153D-05         0.6357084540D-01
  D JK :    0.4150386084D-04         0.1244254446D+01
  D K  :    0.5945752889D-03         0.1782491873D+02
  d 1  :    0.3073738914D-06         0.9214837442D-02
  d 2  :   -0.7025798074D-07        -0.2106281274D-02


 Effective Rotational Constants
 (Include Terms due to Quartic Centrifugal Distortion Constants)
 ---------------------------------------------------------------
           Be in cm^-1             B(S) in cm^-1            B(S) in MHz
 a          9.741123456             9.741123805             292031.54491
 b          1.355991088             1.355951670              40650.40841
 c          1.190298301             1.190337512              35685.42085

 Wilson Centrifugal Distortion Constants
 ---------------------------------------
                cm^-1                    MHz
 DJ     0.1646263331D-05         0.4935373306D-01
 DJK    0.2138512700D-05         0.6411099788D-01
 DK     0.6344148689D-03         0.1901927929D+02

 Nielsen Centrifugal Distortion Constants
 ----------------------------------------
                cm^-1                    MHz
 DJ     0.2216726500D-05         0.6645578861D-01
 DJK    0.4092647276D-04         0.1226944787D+01
 DK     0.5950564457D-03         0.1783934345D+02
 dJ    -0.3073738914D-06        -0.9214837442D-02
 R5     0.9828534653D-05         0.2946520562D+00
 R6    -0.2214230713D-07        -0.6638096680D-03

 Rotational Constants (in cm^-1)
 -------------------------------
 equilibrium (e), ground vibr.state (00), and 00 + centr. dist.(0)
 Ae=   9.7411235     A00=   9.6506789     A0=   9.6506792
 Be=   1.3559911     B00=   1.3519372     B0=   1.3518977
 Ce=   1.1902983     C00=   1.1812949     C0=   1.1813341

 Rotational Constants (in MHz)
 -----------------------------
 equilibrium (e), ground vibr.state (00), and 00 + centr. dist.(0)
 Ae=  292031.534     A00=  289320.074     A0=  289320.085
 Be=   40651.590     B00=   40530.057     B0=   40528.875
 Ce=   35684.245     C00=   35414.331     C0=   35415.506

     ==================================================
           Sextic Centrifugal Distortion Constants
     ==================================================

 Quartic Centrifugal Distortion Constants Tau Prime (Spectroscopic orient.)
 --------------------------------------------------------------------------
                      cm^-1                    MHz
 TauP xxxx     -0.6585053325D-05        -0.1974149322D+00
 TauP xxyy     -0.8335490628D-05        -0.2498917224D+00
 TauP yyyy     -0.1150303559D-04        -0.3448523313D+00
 TauP xxzz     -0.1086207873D-04        -0.3256369280D+00
 TauP yyzz     -0.1705776243D-03        -0.5113788527D+01
 TauP zzzz     -0.2552798580D-02        -0.7653097610D+02

 Sextic Distortion Constants
 ---------------------------
                       in cm-1                  in Hz
 Phi aaa         0.1130606675D-06         0.3389473541D+04
 Phi aab         0.1054200274D-07         0.3160412914D+03
 Phi aac        -0.9957038614D-08        -0.2985045081D+03
 Phi abb         0.4308119456D-09         0.1291541721D+02
 Phi abc         0.1171326719D-09         0.3511549163D+01
 Phi acc         0.5854362815D-10         0.1755093818D+01
 Phi bbb         0.6093405722D-11         0.1826757079D+00
 Phi bbc        -0.9535071949D-12        -0.2858542657D-01
 Phi bcc         0.8821981707D-12         0.2644763580D-01
 Phi ccc         0.7665203614D-12         0.2297970232D-01

 Sextic Centrifugal Distortion Constants Phi (Spectroscopic orient.)
 -------------------------------------------------------------------
                       cm^-1                    MHz
 Phi xxx         0.7665203614D-12         0.2297970232D-07
 Phi yxx         0.8821981707D-12         0.2644763580D-07
 Phi yyx        -0.9535071949D-12        -0.2858542657D-07
 Phi yyy         0.6093405722D-11         0.1826757079D-06
 Phi zxx         0.5854362815D-10         0.1755093818D-05
 Phi zyx         0.1171326719D-09         0.3511549163D-05
 Phi zyy         0.4308119456D-09         0.1291541721D-04
 Phi zzx        -0.9957038614D-08        -0.2985045081D-03
 Phi zzy         0.1054200274D-07         0.3160412914D-03
 Phi zzz         0.1130606675D-06         0.3389473541D-02

 Asymmetric Top Reduction
 ------------------------
       Asymmetry parameter     | Reference formula
  Kappa :        -0.9612451937 |    [2B-A-C]/[A-C]
  Delta :         0.0193774032 |       [B-C]/[A-C]
  Sigma :      -102.1344388996 | [2A'-B'-C']/[B'-C']

 (A,B,C)   : equilibrium rotational constants
 (A',B',C'): effective rotational constants

 Constants in the A reduced Hamiltonian
 --------------------------------------
                       in cm^-1                 in Hz
 Phi J  :         0.3429963042D-11         0.1028277051D+00
 Phi K  :         0.1138162201D-06         0.3412124438D+04
 Phi JK :         0.7877038011D-09         0.2361476587D+02
 Phi KJ :        -0.1546686353D-08        -0.4636849034D+02
 phi j  :        -0.1331721340D-11        -0.3992400139D-01
 phi k  :        -0.3367367470D-07        -0.1009511371D+04
 phi jk :        -0.4234395158D-09        -0.1269439733D+02

 rho    :        -0.4811567361D-07
 mu     :         0.5856008426D-10
 nu     :        -0.2150572062D-12
 lambda :         0.1153131627D-11

 Constants in the S reduced Hamiltonian
 --------------------------------------
                       in cm^-1                 in Hz
 H J  :           0.9816816458D-12         0.2943007536D-01
 H K  :           0.1124599478D-06         0.3371464419D+04
 H JK :           0.2211339455D-09         0.6629428906D+01
 H KJ :           0.3786040536D-09         0.1135026399D+02
 h  1 :          -0.9760657575D-12        -0.2926171526D-01
 h  2 :           0.1224140698D-11         0.3669881488D-01
 h  3 :          -0.3556555827D-12        -0.1066228613D-01

     ==================================================
       Average Coordinates and Mean Square Amplitudes
     ==================================================

 NOTE: Temperature is given in K between parentheses
       For Cartesian and internal coords., units are given between
       parentheses next to each label

 Mean Square Amplitudes of Normal Coordinates (in amu.bohr^2)
 -----------------------------------------------------------
 Mode    <Q^2> (0)    <Q^2> (298.15)    <Q^2> (298.15) class.
    1     0.019517       0.019517          0.103525
    2     0.030152       0.030156          0.247100
    3     0.036437       0.036462          0.360848
    4     0.044990       0.045131          0.550125
    5     0.019093       0.019093          0.099078
    6     0.043871       0.043988          0.523113

 Average Normal Coordinates (in amu^1/2.bohr)
 --------------------------------------------
   Mode    <Q> (0)       <Q> (298.15)
      1     0.032502        0.032476
      2     0.018571        0.018579
      3     0.009624        0.009627
      4     0.000000        0.000000
      5     0.000000        0.000000
      6     0.000000        0.000000

 Mean Square Amplitudes of Cartesian Coordinates
 -----------------------------------------------
    Label        <(S-Se)^2>^1/2 (0)    <(S-Se)^2>^1/2 (298.15)
 X(1)  (Angs)        0.004137              0.004143
 Y(1)  (Angs)        0.007647              0.007657
 Z(1)  (Angs)        0.015999              0.016001
 X(2)  (Angs)        0.016719              0.016745
 Y(2)  (Angs)        0.015860              0.015877
 Z(2)  (Angs)        0.020299              0.020300
 X(3)  (Angs)        0.066711              0.066816
 Y(3)  (Angs)        0.074952              0.074968
 Z(3)  (Angs)        0.092986              0.093054
 X(4)  (Angs)        0.066711              0.066816
 Y(4)  (Angs)        0.074952              0.074968
 Z(4)  (Angs)        0.092986              0.093054

 Average Cartesian Coordinates
 -----------------------------
    Label              Se         <S> = Sz (0)   <S> = Sz (298.15)
 X(1)  (Angs)       0.000000        0.000000        0.000000
 Y(1)  (Angs)       0.000000        0.000000        0.000000
 Z(1)  (Angs)       0.588309        0.590191        0.590191
 X(2)  (Angs)      -0.000000       -0.000000       -0.000000
 Y(2)  (Angs)      -0.000000       -0.000000       -0.000000
 Z(2)  (Angs)      -0.588139       -0.589249       -0.589251
 X(3)  (Angs)      -0.000000       -0.000000       -0.000000
 Y(3)  (Angs)       0.926587        0.936725        0.936717
 Z(3)  (Angs)      -1.167005       -1.175331       -1.175327
 X(4)  (Angs)       0.000000        0.000000        0.000000
 Y(4)  (Angs)      -0.926587       -0.936725       -0.936717
 Z(4)  (Angs)      -1.167005       -1.175331       -1.175327

 Internal coordinates for the Equilibrium structure (Se)
                           Interatomic distances:
                    1          2          3          4
     1  O    0.000000
     2  C    1.176448   0.000000
     3  H    1.984865   1.092542   0.000000
     4  H    1.984865   1.092542   1.853174   0.000000
                           Interatomic angles:
       O1-C2-H3=121.9942       O1-C2-H4=121.9942       O1-H3-H4= 62.1715
       H3-C2-H4=116.0116
                              Dihedral angles:
     H4-C2-H3-O1= 180.  

 Internal coordinates for the vibrationally average structure at 0K (Sz)
                           Interatomic distances:
                    1          2          3          4
     1  O    0.000000
     2  C    1.179440   0.000000
     3  H    1.998629   1.104964   0.000000
     4  H    1.998629   1.104964   1.873451   0.000000
                           Interatomic angles:
       O1-C2-H3=122.033        O1-C2-H4=122.033        O1-H4-H3= 62.0511
       H3-C2-H4=115.934 
                              Dihedral angles:
     H4-C2-H3-O1= 180.  

 Internal coordinates for the vibr. average structure at 298.15K (Sa)
                           Interatomic distances:
                    1          2          3          4
     1  O    0.000000
     2  C    1.179442   0.000000
     3  H    1.998623   1.104954   0.000000
     4  H    1.998623   1.104954   1.873434   0.000000
                           Interatomic angles:
       O1-C2-H3=122.033        O1-C2-H4=122.033        O1-H4-H3= 62.0513
       H3-C2-H4=115.9341
                              Dihedral angles:
     H4-C2-H3-O1= 180.  

     ==================================================
      Vibrational Average of Electric-Field Properties
     ==================================================

 Electric dipole
 ---------------
 P1(diag): diagonal term (k_iii P_i) for the vibrational contribution
 P1(vib) : vibrational contribution to P1 (k_ijj P_i)
 P1(rot) : rotation contribution to P1
   ## Vibrational contributions to averages at    0K (Unit: Debye) ##
 ---------------------------------------------------------------------------
          Mode |   P1(diag)     P1(vib)    P1(rot)        P2     |  P1(tot)+P2
 ---------------------------------------------------------------------------
 X           1 |  -0.478D-17  -0.737D-17   0.000D+00   0.738D-15 |   0.731D-15
 X           2 |  -0.450D-17  -0.475D-17   0.000D+00   0.113D-14 |   0.112D-14
 X           3 |   0.809D-18  -0.313D-17   0.000D+00  -0.128D-14 |  -0.128D-14
 X           4 |  -0.000D+00   0.000D+00   0.000D+00  -0.414D-16 |  -0.414D-16
 X           5 |  -0.000D+00   0.000D+00   0.000D+00   0.202D-14 |   0.202D-14
 X           6 |   0.000D+00  -0.000D+00   0.000D+00   0.197D-14 |   0.197D-14
 Y           1 |  -0.893D-15  -0.138D-14   0.000D+00  -0.219D-14 |  -0.357D-14
 Y           2 |  -0.475D-16  -0.500D-16   0.000D+00   0.926D-14 |   0.921D-14
 Y           3 |  -0.166D-16   0.644D-16   0.000D+00  -0.626D-14 |  -0.620D-14
 Y           4 |  -0.000D+00   0.000D+00   0.000D+00  -0.964D-14 |  -0.964D-14
 Y           5 |   0.000D+00  -0.000D+00   0.000D+00   0.570D-13 |   0.570D-13
 Y           6 |  -0.000D+00   0.000D+00   0.000D+00   0.249D-12 |   0.249D-12
 Z           1 |   0.138D-01   0.213D-01   0.000D+00   0.385D-02 |   0.252D-01
 Z           2 |  -0.180D-01  -0.190D-01   0.000D+00   0.723D-02 |  -0.117D-01
 Z           3 |   0.865D-03  -0.335D-02   0.000D+00   0.568D-02 |   0.232D-02
 Z           4 |   0.000D+00  -0.000D+00   0.000D+00   0.134D-01 |   0.134D-01
 Z           5 |   0.000D+00  -0.000D+00   0.000D+00   0.105D-01 |   0.105D-01
 Z           6 |  -0.000D+00   0.000D+00   0.000D+00   0.314D-02 |   0.314D-02
 ---------------------------------------------------------------------------

   ## Contributions from 1st and 2nd derivatives (Unit:Debye, T=    0K) ##
 ----------------------------------------------------------------------
                P_0             P_1             P_2              <P>
 ----------------------------------------------------------------------
 X      |    -0.4330D-15    -0.1525D-16     0.4538D-14 |     0.4090D-14
 Y      |    -0.4934D-15    -0.1363D-14     0.2968D-12 |     0.2949D-12
 Z      |    -0.2682D+01    -0.1004D-02     0.4374D-01 |    -0.2639D+01
 ----------------------------------------------------------------------

   ## Vibrational contributions to averages at  298K (Unit: Debye) ##
 ---------------------------------------------------------------------------
          Mode |   P1(diag)     P1(vib)    P1(rot)        P2     |  P1(tot)+P2
 ---------------------------------------------------------------------------
 X           1 |  -0.478D-17  -0.736D-17  -0.326D-20   0.738D-15 |   0.731D-15
 X           2 |  -0.450D-17  -0.475D-17   0.103D-18   0.113D-14 |   0.112D-14
 X           3 |   0.809D-18  -0.314D-17  -0.295D-20  -0.128D-14 |  -0.129D-14
 X           4 |  -0.000D+00   0.000D+00  -0.340D-03  -0.416D-16 |  -0.340D-03
 X           5 |  -0.000D+00   0.000D+00   0.956D-20   0.202D-14 |   0.202D-14
 X           6 |   0.000D+00  -0.000D+00   0.118D-17   0.198D-14 |   0.198D-14
 Y           1 |  -0.893D-15  -0.138D-14  -0.610D-18  -0.219D-14 |  -0.357D-14
 Y           2 |  -0.475D-16  -0.500D-16   0.109D-17   0.926D-14 |   0.921D-14
 Y           3 |  -0.166D-16   0.645D-16   0.606D-19  -0.627D-14 |  -0.620D-14
 Y           4 |  -0.000D+00   0.000D+00  -0.236D-17  -0.967D-14 |  -0.967D-14
 Y           5 |   0.000D+00  -0.000D+00  -0.104D-04   0.570D-13 |  -0.104D-04
 Y           6 |  -0.000D+00   0.000D+00  -0.810D-03   0.249D-12 |  -0.810D-03
 Z           1 |   0.138D-01   0.213D-01   0.945D-05   0.385D-02 |   0.252D-01
 Z           2 |  -0.180D-01  -0.190D-01   0.411D-03   0.724D-02 |  -0.113D-01
 Z           3 |   0.865D-03  -0.336D-02  -0.316D-05   0.568D-02 |   0.232D-02
 Z           4 |   0.000D+00  -0.000D+00   0.484D-18   0.134D-01 |   0.134D-01
 Z           5 |   0.000D+00  -0.000D+00  -0.342D-18   0.105D-01 |   0.105D-01
 Z           6 |  -0.000D+00   0.000D+00  -0.146D-16   0.315D-02 |   0.315D-02
 ---------------------------------------------------------------------------

   ## Contributions from 1st and 2nd derivatives (Unit:Debye, T=  298K) ##
 ----------------------------------------------------------------------
                P_0             P_1             P_2              <P>
 ----------------------------------------------------------------------
 X      |    -0.4330D-15    -0.3403D-03     0.4542D-14 |    -0.3403D-03
 Y      |    -0.4934D-15    -0.8203D-03     0.2974D-12 |    -0.8203D-03
 Z      |    -0.2682D+01    -0.6123D-03     0.4380D-01 |    -0.2639D+01
 ----------------------------------------------------------------------

 ------------------------------------------------------------------------
  Property at reference geometry, Unit: Debye
 ------------------------------------------------------------------------
     X=    -0.0000     Y=    -0.0000     Z=    -2.6821
 ------------------------------------------------------------------------
  Temperature:     0K, Unit: Debye
 ------------------------------------------------------------------------
     X=     0.0000     Y=     0.0000     Z=    -2.6393
 ------------------------------------------------------------------------
  Temperature:   298K, Unit: Debye
 ------------------------------------------------------------------------
     X=    -0.0003     Y=    -0.0008     Z=    -2.6389

 Polarizability tensor
 ---------------------
 P1(diag): diagonal term (k_iii P_i) for the vibrational contribution
 P1(vib) : vibrational contribution to P1 (k_ijj P_i)
 P1(rot) : rotation contribution to P1
   ## Vibrational contributions to averages at    0K (Unit: a.u.) ##
 ---------------------------------------------------------------------------
          Mode |   P1(diag)     P1(vib)    P1(rot)        P2     |  P1(tot)+P2
 ---------------------------------------------------------------------------
 XX          1 |   0.294D-01   0.453D-01   0.000D+00   0.844D-02 |   0.538D-01
 XX          2 |   0.230D-01   0.242D-01   0.000D+00   0.433D-02 |   0.285D-01
 XX          3 |  -0.521D-03   0.202D-02   0.000D+00   0.157D-01 |   0.177D-01
 XX          4 |   0.000D+00  -0.000D+00   0.000D+00   0.624D-01 |   0.624D-01
 XX          5 |   0.000D+00  -0.000D+00   0.000D+00   0.179D-01 |   0.179D-01
 XX          6 |   0.000D+00  -0.000D+00   0.000D+00   0.219D-01 |   0.219D-01
 XY          1 |  -0.414D-15  -0.638D-15   0.000D+00   0.182D-12 |   0.181D-12
 XY          2 |   0.569D-17   0.600D-17   0.000D+00  -0.313D-13 |  -0.313D-13
 XY          3 |   0.335D-18  -0.130D-17   0.000D+00  -0.174D-13 |  -0.174D-13
 XY          4 |   0.000D+00  -0.000D+00   0.000D+00   0.130D-11 |   0.130D-11
 XY          5 |  -0.000D+00   0.000D+00   0.000D+00   0.164D-12 |   0.164D-12
 XY          6 |  -0.000D+00   0.000D+00   0.000D+00   0.292D-13 |   0.292D-13
 YY          1 |   0.232D+00   0.358D+00   0.000D+00   0.126D+00 |   0.485D+00
 YY          2 |  -0.129D-01  -0.136D-01   0.000D+00   0.311D-01 |   0.175D-01
 YY          3 |   0.178D-02  -0.690D-02   0.000D+00   0.661D-01 |   0.592D-01
 YY          4 |   0.000D+00  -0.000D+00   0.000D+00   0.855D-01 |   0.855D-01
 YY          5 |   0.000D+00  -0.000D+00   0.000D+00   0.529D-01 |   0.529D-01
 YY          6 |  -0.000D+00   0.000D+00   0.000D+00   0.753D-01 |   0.753D-01
 XZ          1 |  -0.409D-15  -0.631D-15   0.000D+00  -0.204D-12 |  -0.204D-12
 XZ          2 |  -0.682D-16  -0.719D-16   0.000D+00  -0.153D-12 |  -0.153D-12
 XZ          3 |  -0.174D-16   0.673D-16   0.000D+00   0.170D-12 |   0.170D-12
 XZ          4 |   0.000D+00  -0.000D+00   0.000D+00   0.253D-12 |   0.253D-12
 XZ          5 |  -0.000D+00   0.000D+00   0.000D+00   0.263D-12 |   0.263D-12
 XZ          6 |   0.000D+00  -0.000D+00   0.000D+00   0.127D-14 |   0.127D-14
 YZ          1 |   0.185D-13   0.285D-13   0.000D+00  -0.139D-11 |  -0.136D-11
 YZ          2 |  -0.735D-15  -0.775D-15   0.000D+00  -0.327D-12 |  -0.327D-12
 YZ          3 |  -0.328D-15   0.127D-14   0.000D+00   0.322D-13 |   0.335D-13
 YZ          4 |   0.000D+00  -0.000D+00   0.000D+00   0.452D-12 |   0.452D-12
 YZ          5 |   0.000D+00  -0.000D+00   0.000D+00  -0.170D-12 |  -0.170D-12
 YZ          6 |   0.000D+00  -0.000D+00   0.000D+00   0.192D-11 |   0.192D-11
 ZZ          1 |   0.885D-01   0.137D+00   0.000D+00   0.236D-01 |   0.160D+00
 ZZ          2 |   0.554D-01   0.584D-01   0.000D+00   0.439D-01 |   0.102D+00
 ZZ          3 |  -0.740D-02   0.287D-01   0.000D+00   0.475D-01 |   0.762D-01
 ZZ          4 |  -0.000D+00   0.000D+00   0.000D+00   0.528D-01 |   0.528D-01
 ZZ          5 |   0.000D+00  -0.000D+00   0.000D+00   0.637D-01 |   0.637D-01
 ZZ          6 |   0.000D+00  -0.000D+00   0.000D+00   0.506D-01 |   0.506D-01
 ---------------------------------------------------------------------------

   ## Contributions from 1st and 2nd derivatives (Unit:a.u., T=    0K) ##
 ----------------------------------------------------------------------
                P_0             P_1             P_2              <P>
 ----------------------------------------------------------------------
 XX     |     0.1078D+02     0.7152D-01     0.1308D+00 |     0.1098D+02
 XY     |    -0.2764D-14    -0.6338D-15     0.1627D-11 |     0.1624D-11
 YY     |     0.1517D+02     0.3379D+00     0.4373D+00 |     0.1595D+02
 XZ     |     0.1616D-14    -0.6355D-15     0.3303D-12 |     0.3313D-12
 YZ     |     0.3342D-14     0.2903D-13     0.5147D-12 |     0.5470D-12
 ZZ     |     0.1986D+02     0.2236D+00     0.2820D+00 |     0.2037D+02
 ----------------------------------------------------------------------

   ## Vibrational contributions to averages at  298K (Unit: a.u.) ##
 ---------------------------------------------------------------------------
          Mode |   P1(diag)     P1(vib)    P1(rot)        P2     |  P1(tot)+P2
 ---------------------------------------------------------------------------
 XX          1 |   0.294D-01   0.453D-01   0.777D-17   0.844D-02 |   0.537D-01
 XX          2 |   0.230D-01   0.242D-01   0.290D-01   0.433D-02 |   0.576D-01
 XX          3 |  -0.521D-03   0.202D-02   0.000D+00   0.157D-01 |   0.177D-01
 XX          4 |   0.000D+00  -0.000D+00  -0.610D-15   0.626D-01 |   0.626D-01
 XX          5 |   0.000D+00  -0.000D+00   0.152D-28   0.179D-01 |   0.179D-01
 XX          6 |   0.000D+00  -0.000D+00  -0.253D-14   0.220D-01 |   0.220D-01
 XY          1 |  -0.414D-15  -0.638D-15  -0.109D-30   0.182D-12 |   0.181D-12
 XY          2 |   0.569D-17   0.600D-17   0.720D-17  -0.313D-13 |  -0.313D-13
 XY          3 |   0.335D-18  -0.130D-17  -0.254D-18  -0.174D-13 |  -0.174D-13
 XY          4 |   0.000D+00  -0.000D+00  -0.132D-13   0.131D-11 |   0.129D-11
 XY          5 |  -0.000D+00   0.000D+00  -0.113D-29   0.164D-12 |   0.164D-12
 XY          6 |  -0.000D+00   0.000D+00   0.384D-16   0.293D-13 |   0.294D-13
 YY          1 |   0.232D+00   0.358D+00   0.614D-16   0.126D+00 |   0.484D+00
 YY          2 |  -0.129D-01  -0.136D-01  -0.164D-01   0.311D-01 |   0.111D-02
 YY          3 |   0.178D-02  -0.690D-02  -0.135D-02   0.661D-01 |   0.579D-01
 YY          4 |   0.000D+00  -0.000D+00  -0.321D-14   0.858D-01 |   0.858D-01
 YY          5 |   0.000D+00  -0.000D+00   0.254D-27   0.529D-01 |   0.529D-01
 YY          6 |  -0.000D+00   0.000D+00   0.104D-13   0.755D-01 |   0.755D-01
 XZ          1 |  -0.409D-15  -0.630D-15  -0.108D-30  -0.204D-12 |  -0.204D-12
 XZ          2 |  -0.682D-16  -0.719D-16  -0.863D-16  -0.153D-12 |  -0.153D-12
 XZ          3 |  -0.174D-16   0.673D-16   0.348D-16   0.170D-12 |   0.170D-12
 XZ          4 |   0.000D+00  -0.000D+00  -0.452D-02   0.254D-12 |  -0.452D-02
 XZ          5 |  -0.000D+00   0.000D+00  -0.283D-29   0.263D-12 |   0.263D-12
 XZ          6 |   0.000D+00  -0.000D+00  -0.308D-15   0.127D-14 |   0.965D-15
 YZ          1 |   0.185D-13   0.285D-13   0.489D-29  -0.139D-11 |  -0.136D-11
 YZ          2 |  -0.735D-15  -0.775D-15  -0.930D-15  -0.327D-12 |  -0.328D-12
 YZ          3 |  -0.328D-15   0.127D-14   0.657D-15   0.322D-13 |   0.342D-13
 YZ          4 |   0.000D+00  -0.000D+00  -0.237D-15   0.454D-12 |   0.453D-12
 YZ          5 |   0.000D+00  -0.000D+00   0.720D-15  -0.170D-12 |  -0.169D-12
 YZ          6 |   0.000D+00  -0.000D+00  -0.425D-01   0.192D-11 |  -0.425D-01
 ZZ          1 |   0.885D-01   0.136D+00   0.234D-16   0.236D-01 |   0.160D+00
 ZZ          2 |   0.554D-01   0.584D-01   0.701D-01   0.439D-01 |   0.172D+00
 ZZ          3 |  -0.740D-02   0.287D-01   0.148D-01   0.475D-01 |   0.911D-01
 ZZ          4 |  -0.000D+00   0.000D+00   0.121D-14   0.530D-01 |   0.530D-01
 ZZ          5 |   0.000D+00  -0.000D+00   0.418D-28   0.637D-01 |   0.637D-01
 ZZ          6 |   0.000D+00  -0.000D+00  -0.154D-13   0.508D-01 |   0.508D-01
 ---------------------------------------------------------------------------

   ## Contributions from 1st and 2nd derivatives (Unit:a.u., T=  298K) ##
 ----------------------------------------------------------------------
                P_0             P_1             P_2              <P>
 ----------------------------------------------------------------------
 XX     |     0.1078D+02     0.1005D+00     0.1310D+00 |     0.1101D+02
 XY     |    -0.2764D-14    -0.1377D-13     0.1632D-11 |     0.1615D-11
 YY     |     0.1517D+02     0.3199D+00     0.4378D+00 |     0.1593D+02
 XZ     |     0.1616D-14    -0.4522D-02     0.3312D-12 |    -0.4522D-02
 YZ     |     0.3342D-14    -0.4247D-01     0.5212D-12 |    -0.4247D-01
 ZZ     |     0.1986D+02     0.3085D+00     0.2824D+00 |     0.2045D+02
 ----------------------------------------------------------------------

 ------------------------------------------------------------------------
  Property at reference geometry, Unit: a.u.
 ------------------------------------------------------------------------
    XX=    10.7800
    YX=    -0.0000    YY=    15.1718
    ZX=     0.0000    ZY=     0.0000    ZZ=    19.8594
 ------------------------------------------------------------------------
  Temperature:     0K, Unit: a.u.
 ------------------------------------------------------------------------
    XX=    10.9822
    YX=     0.0000    YY=    15.9470
    ZX=     0.0000    ZY=     0.0000    ZZ=    20.3651
 ------------------------------------------------------------------------
  Temperature:   298K, Unit: a.u.
 ------------------------------------------------------------------------
    XX=    11.0115
    YX=     0.0000    YY=    15.9295
    ZX=    -0.0045    ZY=    -0.0425    ZZ=    20.4502

     ==================================================
                     Resonance Analysis
     ==================================================

 Thresholds
 ----------
 1-2 Fermi resonances:
     - Maximum Frequency difference (cm^-1)          :    200.000
     - Minimum Difference PT2 vs Variational (cm^-1) :      1.000
 2-2 Darling-Dennison resonances:
     - Maximum Frequency difference (cm^-1)          :    100.000
     - Minimum value of off-diagonal term (cm^-1)    :     10.000
 1-1 Darling-Dennison resonances:
     - Maximum Frequency difference (cm^-1)          :    100.000
     - Minimum value of off-diagonal term (cm^-1)    :     10.000
 1-3 Darling-Dennison resonances:
     - Maximum Frequency difference (cm^-1)          :    100.000
     - Minimum value of off-diagonal term (cm^-1)    :     10.000

 Fermi resonances
 ----------------

     I      J  +   K   Freq. Diff.  Red. Cubic Const.  PT2-Variat.Diff.
      5      3      6      128.649         189.622              9.488

     1 Active Fermi resonances over     1

 Darling-Dennison resonances
 ---------------------------

 (2-2)  I      J      K      L    Freq. Diff.    Darl. Denn.
         6      6      4      4      68.22332           -29.218

     1 Active 2-2 Darling-Dennison resonances over     1
  No 1-1 Darling-Dennison resonance found
  No 1-3 Darling-Dennison resonance found

     ==================================================
                     Anharmonic X Matrix
     ==================================================

 PT2 model: Deperturbed VPT2 (DVPT2)
 Ref.: V. Barone, J. Chem. Phys. 122, 1, 014108 (2005)

 Coriolis contributions to X Matrix (in cm^-1)
 ---------------------------------------------
                1             2             3             4             5
      1  0.000000D+00
      2  0.000000D+00  0.000000D+00
      3  0.000000D+00  0.000000D+00  0.000000D+00
      4  0.999695D+00  0.880252D+00  0.119388D+01  0.000000D+00
      5  0.340981D-02  0.484064D+00  0.235896D+01  0.194268D+02  0.000000D+00
      6  0.268528D+01  0.308058D+00  0.100254D+00  0.551159D+01  0.000000D+00
                6
      6  0.000000D+00

 3rd Deriv. contributions to X Matrix (in cm^-1)
 -----------------------------------------------
                1             2             3             4             5
      1 -0.585158D+02
      2  0.568301D+01 -0.180242D+02
      3  0.427536D+01 -0.841600D+01  0.142650D-01
      4  0.591878D+02 -0.197629D+01 -0.340817D+01 -0.116342D+02
      5 -0.248878D+03  0.345704D+00  0.102999D+02  0.358667D+02 -0.678427D+02
      6  0.415367D+02  0.420767D+01 -0.609213D+01 -0.463628D+01  0.124460D+02
                6
      6 -0.763542D+01

 4th Deriv. contributions to X Matrix (in cm^-1)
 -----------------------------------------------
                1             2             3             4             5
      1  0.312937D+02
      2 -0.626967D+01  0.974616D+01
      3 -0.350893D+02  0.308846D+01  0.762279D+00
      4 -0.625120D+02 -0.315727D+01  0.258523D+01  0.729762D+01
      5  0.135885D+03 -0.119758D+02 -0.471157D+02 -0.736241D+02  0.361980D+02
      6 -0.495470D+02 -0.513921D+00  0.913813D+01  0.627661D+01 -0.519193D+02
                6
      6  0.514947D+01

 Total Anharmonic X Matrix (in cm^-1)
 ------------------------------------
                1             2             3             4             5
      1 -0.272221D+02
      2 -0.586666D+00 -0.827808D+01
      3 -0.308139D+02 -0.532754D+01  0.776544D+00
      4 -0.232444D+01 -0.425331D+01  0.370940D+00 -0.433658D+01
      5 -0.112990D+03 -0.111460D+02 -0.344568D+02 -0.183307D+02 -0.316447D+02
      6 -0.532504D+01  0.400181D+01  0.314624D+01  0.715192D+01 -0.394733D+02
                6
      6 -0.248595D+01

     ==================================================
            Deperturbed terms for anharmonicity
     ==================================================

 Variational Matrix Definition
 -----------------------------
 NOTE: Types of resonances:
       1-2: Fermi resonance           - TERM < v+1_i | H | v+2_j>
       2-2: Darling-Dennison 2-2 res. - TERM < v+1_i+1_j | H | v+1_k+1_l>
       1-1: Darling-Dennison 1-1 res. - TERM < v+1_i | H | v+1_j>
       1-3: Darling-Dennison 1-3 res. - TERM < v+1_i | H | v+1_j+1_k+1_l>

 Type |     State 1   |  Off-Diagonal |     State 2
    -- --           -- --           -- --
  2-2 |         4(2)  |               |         6(2)
      |   0.26328D+04 |  -0.14609D+02 |   0.26990D+04
    -- --           -- --           -- --
  1-2 |         5(1)  |               |         3(1)      6(1)
      |   0.29815D+04 |   0.67042D+02 |   0.29753D+04

 Projection of DVPT2 states on New Variational States
 ----------------------------------------------------

 NOTE: Only states with projection lower than 80% are shown below.

   ## LOW CHANGES WITH RESPECT TO THE DEPERTURBED STATES (<=50%) ##
  State |5(1)>              has overlap of 52.3% with state  6
  State |6(1);3(1)>         has overlap of 52.3% with state 11

 Vibrational Energies (cm^-1)
 ----------------------------
   Mode(n)                    E(depert.)    E(after diag.)
      5(1)                       2981.506        3045.508
      4(2)                       2632.755        2629.675
      6(2)                       2698.969        2702.049
      6(1)       3(1)            2975.282        2911.280

     ==================================================
          Computation of Wavefunction Coefficients
     ==================================================

 Final coefficients
 ------------------
                 1             2             3             4             5
      1   0.000000D+00  0.000000D+00  0.230684D+00  0.110471D+00  0.100000D+01
      2   0.000000D+00  0.000000D+00  0.165383D+01  0.100000D+01  0.113578D+00
      3   0.000000D+00  0.000000D+00  0.100000D+01  0.162006D+01  0.231841D+00
      4   0.100000D+01  0.000000D+00  0.000000D+00  0.000000D+00  0.000000D+00
      5   0.000000D+00  0.597158D+00  0.000000D+00  0.000000D+00  0.000000D+00
      6   0.000000D+00  0.100000D+01  0.000000D+00  0.000000D+00  0.000000D+00
                 6             7             8             9            10
      1   0.000000D+00  0.000000D+00  0.000000D+00  0.000000D+00  0.000000D+00
      2   0.000000D+00  0.000000D+00  0.000000D+00  0.000000D+00  0.000000D+00
      3   0.690519D+00  0.000000D+00  0.000000D+00  0.000000D+00  0.100000D+01
      4   0.000000D+00  0.195698D+01  0.100000D+01 -0.412580D+00  0.100000D+01
      5   0.723314D+00  0.000000D+00  0.000000D+00  0.000000D+00  0.000000D+00
      6   0.112084D+01  0.412580D+00  0.100000D+01  0.195698D+01  0.000000D+00
                11            12            13            14            15
      1   0.000000D+00  0.000000D+00  0.000000D+00  0.000000D+00  0.000000D+00
      2   0.000000D+00  0.000000D+00  0.100000D+01  0.100000D+01  0.100000D+01
      3   0.723314D+00  0.200000D+01  0.000000D+00  0.000000D+00  0.100000D+01
      4   0.000000D+00  0.000000D+00  0.100000D+01  0.000000D+00  0.000000D+00
      5  -0.690519D+00  0.000000D+00  0.000000D+00  0.000000D+00  0.000000D+00
      6   0.312504D+00  0.000000D+00  0.000000D+00  0.100000D+01  0.000000D+00
                16            17            18            19            20
      1   0.000000D+00  0.100000D+01  0.100000D+01  0.100000D+01  0.100000D+01
      2   0.200000D+01  0.000000D+00  0.000000D+00  0.000000D+00  0.100000D+01
      3   0.000000D+00  0.000000D+00  0.000000D+00  0.100000D+01  0.000000D+00
      4   0.000000D+00  0.100000D+01  0.000000D+00  0.000000D+00  0.000000D+00
      5   0.000000D+00  0.000000D+00  0.000000D+00  0.000000D+00  0.000000D+00
      6   0.000000D+00  0.000000D+00  0.100000D+01  0.000000D+00  0.000000D+00
                21            22            23            24            25
      1   0.200000D+01  0.000000D+00  0.000000D+00  0.000000D+00  0.000000D+00
      2   0.000000D+00  0.000000D+00  0.000000D+00  0.000000D+00  0.100000D+01
      3   0.000000D+00  0.000000D+00  0.000000D+00  0.100000D+01  0.000000D+00
      4   0.000000D+00  0.100000D+01  0.000000D+00  0.000000D+00  0.000000D+00
      5   0.000000D+00  0.100000D+01  0.100000D+01  0.100000D+01  0.100000D+01
      6   0.000000D+00  0.000000D+00  0.100000D+01  0.000000D+00  0.000000D+00
                26            27            28            29            30
      1   0.100000D+01  0.000000D+00  0.000000D+00  0.000000D+00  0.000000D+00
      2   0.000000D+00  0.000000D+00  0.000000D+00  0.000000D+00  0.000000D+00
      3   0.000000D+00  0.000000D+00  0.000000D+00  0.000000D+00  0.000000D+00
      4   0.000000D+00  0.000000D+00  0.300445D+01  0.200000D+01  0.100020D+01
      5   0.100000D+01  0.200000D+01  0.000000D+00  0.460458D-04  0.000000D+00
      6   0.000000D+00  0.000000D+00  0.000000D+00  0.100021D+01  0.200000D+01
                31            32            33            34            35
      1   0.000000D+00  0.536478D-03  0.000000D+00  0.638759D-03  0.000000D+00
      2   0.000000D+00 -0.526970D-04  0.000000D+00 -0.199983D-03  0.000000D+00
      3   0.000000D+00  0.100006D+01  0.100000D+01  0.100035D+01  0.200000D+01
      4   0.000000D+00  0.200000D+01  0.100000D+01  0.000000D+00  0.100001D+01
      5   0.304451D-02  0.000000D+00  0.000000D+00  0.000000D+00  0.000000D+00
      6   0.300306D+01  0.000000D+00  0.100000D+01  0.200000D+01  0.000000D+00
                36            37            38            39            40
      1   0.000000D+00 -0.541584D-02  0.142678D-02  0.000000D+00  0.116949D-02
      2   0.000000D+00  0.658650D-03  0.999948D+00  0.100000D+01  0.100002D+01
      3   0.200000D+01  0.300000D+01 -0.186120D-03  0.000000D+00  0.422626D-04
      4   0.000000D+00  0.000000D+00  0.200000D+01  0.100000D+01  0.000000D+00
      5   0.209683D-02  0.000000D+00  0.000000D+00  0.000000D+00  0.000000D+00
      6   0.100035D+01  0.000000D+00  0.000000D+00  0.100000D+01  0.200000D+01
                41            42            43            44            45
      1   0.000000D+00  0.000000D+00 -0.463361D-03  0.000000D+00  0.000000D+00
      2   0.100000D+01  0.100000D+01  0.100029D+01  0.200000D+01  0.200000D+01
      3   0.100000D+01  0.100000D+01  0.199995D+01  0.000000D+00  0.000000D+00
      4   0.999848D+00  0.000000D+00  0.000000D+00  0.999955D+00  0.000000D+00
      5   0.000000D+00  0.416383D-02  0.000000D+00  0.000000D+00  0.205420D-02
      6   0.000000D+00  0.100002D+01  0.000000D+00  0.000000D+00  0.100002D+01
                46            47            48            49            50
      1  -0.120821D-04 -0.220434D-02  0.100087D+01  0.100000D+01  0.100101D+01
      2   0.200062D+01  0.300975D+01  0.227639D-03  0.000000D+00  0.151800D-03
      3   0.100026D+01  0.169124D-02 -0.257661D-03  0.000000D+00  0.520137D-03
      4   0.000000D+00  0.000000D+00  0.200000D+01  0.100000D+01  0.000000D+00
      5   0.000000D+00  0.000000D+00  0.000000D+00  0.000000D+00  0.000000D+00
      6   0.000000D+00  0.000000D+00  0.000000D+00  0.100000D+01  0.200000D+01
                51            52            53            54            55
      1   0.100000D+01  0.100000D+01  0.997705D+00  0.100000D+01  0.100000D+01
      2   0.000000D+00  0.000000D+00  0.418798D-03  0.100000D+01  0.100000D+01
      3   0.100000D+01  0.100000D+01  0.199973D+01  0.000000D+00  0.000000D+00
      4   0.999594D+00  0.000000D+00  0.000000D+00  0.999932D+00  0.000000D+00
      5   0.000000D+00  0.760031D-02  0.000000D+00  0.000000D+00  0.313569D-02
      6   0.000000D+00  0.100046D+01  0.000000D+00  0.000000D+00  0.999939D+00
                56            57            58            59            60
      1   0.100094D+01  0.999641D+00  0.200000D+01  0.200000D+01  0.200032D+01
      2   0.100028D+01  0.200094D+01  0.000000D+00  0.000000D+00  0.366549D-03
      3   0.100033D+01  0.176536D-03  0.000000D+00  0.000000D+00  0.999297D+00
      4   0.000000D+00  0.000000D+00  0.998374D+00  0.000000D+00  0.000000D+00
      5   0.000000D+00  0.000000D+00  0.000000D+00 -0.129524D-03  0.000000D+00
      6   0.000000D+00  0.000000D+00  0.000000D+00  0.998734D+00  0.000000D+00
                61            62            63            64            65
      1   0.200068D+01  0.302883D+01  0.000000D+00  0.000000D+00  0.000000D+00
      2   0.999766D+00 -0.139756D-02  0.000000D+00  0.000000D+00  0.000000D+00
      3   0.315398D-03 -0.354269D-03  0.000000D+00  0.000000D+00  0.000000D+00
      4   0.000000D+00  0.000000D+00  0.200000D+01  0.100013D+01  0.000000D+00
      5   0.000000D+00  0.000000D+00  0.998014D+00  0.100000D+01  0.998328D+00
      6   0.000000D+00  0.000000D+00 -0.139723D-03  0.100000D+01  0.200014D+01
                66            67            68            69            70
      1   0.000000D+00  0.447091D-03  0.000000D+00  0.000000D+00 -0.248469D-03
      2   0.000000D+00  0.145612D-03  0.000000D+00  0.100000D+01  0.100006D+01
      3   0.100000D+01  0.999853D+00  0.200000D+01  0.000000D+00 -0.168465D-03
      4   0.100000D+01  0.000000D+00  0.000000D+00  0.100000D+01  0.000000D+00
      5   0.100000D+01  0.100000D+01  0.998904D+00  0.100000D+01  0.100000D+01
      6   0.000000D+00  0.100000D+01 -0.148047D-03  0.000000D+00  0.100000D+01
                71            72            73            74            75
      1   0.000000D+00  0.000000D+00  0.100000D+01  0.999896D+00  0.100000D+01
      2   0.100000D+01  0.200000D+01  0.000000D+00  0.282768D-03  0.000000D+00
      3   0.100000D+01  0.000000D+00  0.000000D+00 -0.356441D-03  0.100000D+01
      4   0.000000D+00  0.000000D+00  0.100000D+01  0.000000D+00  0.000000D+00
      5   0.100085D+01  0.999571D+00  0.100000D+01  0.100000D+01  0.100120D+01
      6  -0.865340D-04  0.108393D-03  0.000000D+00  0.100000D+01 -0.301063D-03
                76            77            78            79            80
      1   0.100000D+01  0.200000D+01  0.000000D+00  0.000000D+00  0.380460D-03
      2   0.100000D+01  0.000000D+00  0.000000D+00  0.000000D+00  0.272550D-03
      3   0.000000D+00  0.000000D+00  0.000000D+00  0.000000D+00  0.999330D+00
      4   0.000000D+00  0.000000D+00  0.998779D+00  0.000000D+00  0.000000D+00
      5   0.100068D+01  0.100522D+01  0.200000D+01  0.200022D+01  0.200000D+01
      6   0.178098D-03 -0.469390D-04  0.000000D+00  0.999272D+00  0.000000D+00
                81            82            83
      1   0.716379D-03  0.100293D+01  0.000000D+00
      2   0.999810D+00 -0.282813D-03  0.000000D+00
      3   0.347028D-03  0.174793D-03  0.000000D+00
      4   0.000000D+00  0.000000D+00  0.000000D+00
      5   0.200000D+01  0.200000D+01  0.300937D+01
      6   0.000000D+00  0.000000D+00  0.580727D-03

     ==================================================
                Anharmonic Zero Point Energy
     ==================================================

 Anharmonic X0 Term
 ------------------
 U term         : cm-1 =    -3.07185 ; Kcal/mol =  -0.009 ; KJ/mol =  -0.037
 Coriolis       : cm-1 =    -6.73886 ; Kcal/mol =  -0.019 ; KJ/mol =  -0.081
 Anharmonic     : cm-1 =    18.51822 ; Kcal/mol =   0.053 ; KJ/mol =   0.222
 Total X0       : cm-1 =     8.70751 ; Kcal/mol =   0.025 ; KJ/mol =   0.104

 Anharmonic Zero Point Energy
 ----------------------------
 Harmonic       : cm-1 =  6298.24511 ; Kcal/mol =  18.008 ; KJ/mol =  75.344
 Anharmonic Pot.: cm-1 =   -70.85672 ; Kcal/mol =  -0.203 ; KJ/mol =  -0.848
 Watson+Coriolis: cm-1 =    -1.32264 ; Kcal/mol =  -0.004 ; KJ/mol =  -0.016
 Total Anharm   : cm-1 =  6226.06575 ; Kcal/mol =  17.801 ; KJ/mol =  74.480

 Comparison between old and new code
 -----------------------------------
 DZPE = ZPE(total) - ZPE(harmonic) [in cm^-1]
 Old DZPE: -0.56179D+02, New DZPE: -0.72179D+02
 Percentage: |old DZPE - New DZPE|/|old DZPE| =   -28.48%


     ==================================================
          Vibrational Energies at Anharmonic Level
     ==================================================

 Units: Vibrational energies and rotational constants in cm^-1.
 NOTE: Transition energies are given with respect to the ground state.

 NOTE: H and L indicates if there is a high or low overlap with the
       state to which it is assigned. In absence of indicator, the state
       is unchanged or nearly unchanged after variational correction.

 Reference Data
 --------------
                                          E(harm)  E(anharm)     Aa(z)      Ba(y)      Ca(x)
 Equilibrium Geometry                                          9.741123   1.356009   1.190280
 Ground State                             6298.245  6226.066   9.650679   1.351955   1.181277

 Fundamental Bands
 -----------------
     Mode(n)      Status                  E(harm)  E(anharm)     Aa(z)      Ba(y)      Ca(x)
        1(1)      active                  3084.542  2954.078   9.503428   1.351497   1.179133
        2(1)      active                  1996.530  1971.318   9.649338   1.345375   1.173669
        3(1)      active                  1652.153  1620.165   9.717941   1.363694   1.178621
        4(1)      active                  1338.080  1320.714   6.357100   1.337999   1.182867
 H      5(1)      active                  3152.994  3045.508   9.581364   1.350209   1.179996
        6(1)      active                  1372.192  1351.970  12.914010   1.354849   1.175369

 Overtones
 ---------
     Mode(n)                              E(harm)  E(anharm)     Aa(z)      Ba(y)      Ca(x)
        1(2)                              6169.085  5853.712   9.356178   1.351040   1.176990
        1(3)                              9253.627  8698.902   9.208928   1.350582   1.174846
        2(2)                              3993.060  3926.080   9.647998   1.338795   1.166061
        2(3)                              5989.590  5864.285   9.646658   1.332215   1.158453
        3(2)                              3304.306  3241.884   9.785203   1.375434   1.175965
        3(3)                              4956.459  4865.156   9.852466   1.387173   1.173309
        4(2)                              2676.160  2629.675   3.063522   1.324044   1.184457
        4(3)                              4014.240  3936.122  -0.230056   1.310088   1.186048
        5(2)                              6305.987  5899.722   9.512050   1.348462   1.178714
        5(3)                              9458.981  8754.649   9.442735   1.346716   1.177433
        6(2)                              2744.383  2702.049  16.177342   1.357742   1.169461
        6(3)                              4116.575  4040.996  19.440674   1.360636   1.163554

 Combination Bands
 -----------------
     Mode(n)     Mode(n)     Mode(n)      E(harm)  E(anharm)     Aa(z)      Ba(y)      Ca(x)
        2(1)        1(1)                  5081.072  4924.809   9.502088   1.344917   1.171525
        2(2)        1(1)                  7077.602  6878.985   9.500748   1.338337   1.163917
        2(1)        1(2)                  8165.615  7823.857   9.354838   1.344459   1.169382
        3(1)        1(1)                  4736.695  4543.430   9.570691   1.363237   1.176477
        3(2)        1(1)                  6388.848  6134.334   9.637953   1.374976   1.173821
        3(1)        1(2)                  7821.238  7412.250   9.423440   1.362779   1.174334
        3(1)        2(1)                  3648.683  3586.156   9.716601   1.357114   1.171013
        3(2)        2(1)                  5300.836  5202.547   9.783863   1.368854   1.168357
        3(1)        2(2)                  5645.213  5535.590   9.715260   1.350534   1.163405
        3(1)        2(1)        1(1)      6733.225  6508.833   9.569350   1.356657   1.168869
        4(1)        1(1)                  4422.622  4272.468   6.209850   1.337542   1.180723
        4(2)        1(1)                  5760.702  5582.184   2.916272   1.323586   1.182314
        4(1)        1(2)                  7507.165  7169.777   6.062600   1.337084   1.178580
        4(1)        2(1)                  3334.610  3287.779   6.355760   1.331419   1.175259
        4(2)        2(1)                  4672.690  4595.566   3.062182   1.317464   1.176849
        4(1)        2(2)                  5331.140  5238.287   6.354420   1.324839   1.167651
        4(1)        2(1)        1(1)      6419.152  6238.946   6.208510   1.330962   1.173115
        4(1)        3(1)                  2990.233  2941.250   6.424363   1.349739   1.180211
        4(2)        3(1)                  4328.313  4253.662   3.130784   1.335783   1.181801
        4(1)        3(2)                  4642.386  4563.340   6.491625   1.361478   1.177555
        4(1)        3(1)        1(1)      6074.775  5862.190   6.277112   1.349281   1.178068
        4(1)        3(1)        2(1)      4986.763  4902.987   6.423022   1.343159   1.172603
        5(1)        1(1)                  6237.536  5822.594   9.434114   1.349751   1.177852
        5(2)        1(1)                  9390.529  8627.821   9.364799   1.348004   1.176570
        5(1)        1(2)                  9322.078  8609.238   9.286864   1.349293   1.175708
        5(1)        2(1)                  5149.524  4941.678   9.580024   1.343629   1.172388
        5(2)        2(1)                  8302.517  7848.748   9.510709   1.341882   1.171106
        5(1)        2(2)                  7146.054  6885.294   9.578683   1.337049   1.164780
        5(1)        2(1)        1(1)      8234.066  7782.179   9.432774   1.343171   1.170244
        5(1)        3(1)                  4805.146  4567.215   9.648627   1.361948   1.177340
        5(2)        3(1)                  7958.140  7450.974   9.579312   1.360201   1.176058
        5(1)        3(2)                  6457.299  6154.476   9.715889   1.373687   1.174684
        5(1)        3(1)        1(1)      7889.689  7377.489   9.501376   1.361490   1.175196
        5(1)        3(1)        2(1)      6801.676  6522.059   9.647286   1.355368   1.169732
        5(1)        4(1)                  4491.073  4283.889   6.287786   1.336253   1.181586
        5(2)        4(1)                  7644.067  7183.775   6.218471   1.334506   1.180304
        5(1)        4(2)                  5829.153  5577.599   2.994207   1.322297   1.183176
        5(1)        4(1)        1(1)      7575.616  7122.653   6.140536   1.335795   1.179442
        5(1)        4(1)        2(1)      6487.603  6239.808   6.286445   1.329673   1.173978
        5(1)        4(1)        3(1)      6143.226  5869.969   6.355048   1.347992   1.178930
        6(1)        1(1)                  4456.734  4300.724  12.766760   1.354391   1.173226
        6(2)        1(1)                  5828.925  5642.397  16.030092   1.357285   1.167318
        6(1)        1(2)                  7541.276  7195.032  12.619510   1.353933   1.171082
        6(1)        2(1)                  3368.722  3327.290  12.912670   1.348269   1.167761
        6(2)        2(1)                  4740.913  4678.291  16.176002   1.351162   1.161853
        6(1)        2(2)                  5365.252  5286.054  12.911330   1.341689   1.160153
        6(1)        2(1)        1(1)      6453.264  6275.457  12.765420   1.347811   1.165618
 H      6(1)        3(1)                  3024.344  2911.280  12.981273   1.366588   1.172713
        6(2)        3(1)                  4396.536  4325.427  16.244604   1.369482   1.166805
        6(1)        3(2)                  4676.497  4600.147  13.048535   1.378327   1.170057
        6(1)        3(1)        1(1)      6108.887  5893.221  12.834022   1.366130   1.170570
        6(1)        3(1)        2(1)      5020.874  4945.274  12.979932   1.360008   1.165105
        6(1)        4(1)                  2710.271  2679.836   9.620432   1.340893   1.176959
        6(2)        4(1)                  4082.463  4033.987  12.883764   1.343787   1.171052
        6(1)        4(2)                  4048.351  3999.029   6.326854   1.326937   1.178550
        6(1)        4(1)        1(1)      5794.814  5626.265   9.473182   1.340435   1.174816
        6(1)        4(1)        2(1)      4706.801  4650.903   9.619092   1.334313   1.169351
        6(1)        4(1)        3(1)      4362.424  4303.519   9.687694   1.352632   1.174303
        6(1)        5(1)                  4525.185  4294.003  12.844696   1.353102   1.174088
        6(2)        5(1)                  5897.377  5601.528  16.108028   1.355996   1.168180
        6(1)        5(2)                  7678.179  7172.746  12.775381   1.351356   1.172806
        6(1)        5(1)        1(1)      7609.727  7129.766  12.697446   1.352644   1.171944
        6(1)        5(1)        2(1)      6521.715  6258.177  12.843355   1.346522   1.166480
        6(1)        5(1)        3(1)      6177.338  5882.858  12.911958   1.364842   1.171432
        6(1)        5(1)        4(1)      5863.265  5603.538   9.551117   1.339147   1.175678

     ==================================================
      Thermodynamic properties and Partition Functions
     ==================================================

 ZPE(harm) = 0.75344D+02 kJ/mol        ZPE(anh)= 0.74480D+02 kJ/mol

 Input values of T(K) and P(atm): 298.15   1.00
                    Harmonic value     SPT anharmonic value
 Qvib               0.63356D-13          0.89785D-13
 QZvib              0.10033D+01          0.10037D+01
 Energy             0.82836D+02          0.81978D+02         kJ/mol
 Enthalpy           0.85315D+02          0.84456D+02         kJ/mol
 Entropy            0.21792D+03          0.21794D+03         J/(mol K)
 Sp.Heat(V)         0.26210D+02          0.26305D+02         J/(mol K)
 Sp.Heat(P)         0.34524D+02          0.34619D+02         J/(mol K)

 T =  298.15 K;  P =   1.00 atm
                    Harmonic value     SPT anharmonic value
 Qvib               0.63356D-13          0.89785D-13
 QZvib              0.10033D+01          0.10037D+01
 Energy             0.82836D+02          0.81978D+02         kJ/mol
 Enthalpy           0.85315D+02          0.84456D+02         kJ/mol
 Entropy            0.21792D+03          0.21794D+03         J/(mol K)
 Sp.Heat(V)         0.26210D+02          0.26305D+02         J/(mol K)
 Sp.Heat(P)         0.34524D+02          0.34619D+02         J/(mol K)

 T =  500.00 K;  P =   1.00 atm
                    Harmonic value     SPT anharmonic value
 Qvib               0.14194D-07          0.17531D-07
 QZvib              0.10545D+01          0.10582D+01
 Energy             0.88744D+02          0.87930D+02         kJ/mol
 Enthalpy           0.92901D+02          0.92087D+02         kJ/mol
 Entropy            0.23720D+03          0.23733D+03         J/(mol K)
 Sp.Heat(V)         0.32980D+02          0.33322D+02         J/(mol K)
 Sp.Heat(P)         0.41295D+02          0.41636D+02         J/(mol K)

 T = 1000.00 K;  P =   1.00 atm
                    Harmonic value     SPT anharmonic value
 Qvib               0.18851D-03          0.21346D-03
 QZvib              0.16249D+01          0.16584D+01
 Energy             0.10997D+03          0.10943D+03         kJ/mol
 Enthalpy           0.11829D+03          0.11774D+03         kJ/mol
 Entropy            0.27167D+03          0.27216D+03         J/(mol K)
 Sp.Heat(V)         0.50685D+02          0.51338D+02         J/(mol K)
 Sp.Heat(P)         0.59000D+02          0.59653D+02         J/(mol K)

 T = 1500.00 K;  P =   1.00 atm
                    Harmonic value     SPT anharmonic value
 Qvib               0.73531D-02          0.81924D-02
 QZvib              0.30912D+01          0.32136D+01
 Energy             0.13808D+03          0.13785D+03         kJ/mol
 Enthalpy           0.15055D+03          0.15032D+03         kJ/mol
 Entropy            0.29770D+03          0.29844D+03         J/(mol K)
 Sp.Heat(V)         0.60652D+02          0.61222D+02         J/(mol K)
 Sp.Heat(P)         0.68966D+02          0.69536D+02         J/(mol K)

 T = 2000.00 K;  P =   1.00 atm
                    Harmonic value     SPT anharmonic value
 Qvib               0.65594D-01          0.72917D-01
 QZvib              0.60898D+01          0.64271D+01
 Energy             0.16984D+03          0.16986D+03         kJ/mol
 Enthalpy           0.18647D+03          0.18648D+03         kJ/mol
 Entropy            0.31833D+03          0.31922D+03         J/(mol K)
 Sp.Heat(V)         0.65849D+02          0.66273D+02         J/(mol K)
 Sp.Heat(P)         0.74164D+02          0.74587D+02         J/(mol K)

     ==================================================
               Anharmonic Transition Moments
     ==================================================

 Electric dipole : 1 quantum
 ------------------------------------------------------------------------

 --------------------------------------------------------------------------
  FUNDAMENTAL:      1(1)           - Anh. Freq.:   2954.078 cm^-1
 --------------------------------------------------------------------------
      Term                  X                Y                Z
     + HARMONIC       -0.124579D-16    -0.232979D-14     0.360496D-01
     + ELECTRIC       -0.315901D-18     0.602541D-18    -0.267092D-03
        + MIXED        0.564334D-15     0.231428D-13     0.242521D-02
 + CUBIC    (1)        0.211813D-18     0.347199D-16    -0.884233D-03
 + QUARTIC  (2)        0.619215D-19     0.207797D-16    -0.412289D-03
 + CORIOLIS (3)        0.796803D-20    -0.168555D-18     0.669433D-04
    (1)+(2)+(3)        0.281703D-18     0.553310D-16    -0.122958D-02
        = TOTAL        0.551842D-15     0.208689D-13     0.369781D-01
 --------------------------------------------------------------------------
  FUNDAMENTAL:      2(1)           - Anh. Freq.:   1971.318 cm^-1
 --------------------------------------------------------------------------
      Term                  X                Y                Z
     + HARMONIC       -0.174589D-16    -0.184031D-15    -0.697746D-01
     + ELECTRIC       -0.902341D-18     0.172110D-17    -0.762923D-03
        + MIXED        0.114168D-15     0.319197D-14    -0.290316D-03
 + CUBIC    (1)        0.719937D-18     0.404207D-17     0.367075D-04
 + QUARTIC  (2)       -0.109408D-17     0.275882D-16    -0.111307D-02
 + CORIOLIS (3)        0.569813D-19    -0.314597D-17     0.968561D-04
    (1)+(2)+(3)       -0.317161D-18     0.284843D-16    -0.979505D-03
        = TOTAL        0.954893D-16     0.303814D-14    -0.718073D-01
 --------------------------------------------------------------------------
  FUNDAMENTAL:      3(1)           - Anh. Freq.:   1620.165 cm^-1
 --------------------------------------------------------------------------
      Term                  X                Y                Z
     + HARMONIC       -0.244638D-16     0.502773D-15    -0.261779D-01
     + ELECTRIC       -0.512254D-18     0.977058D-18    -0.433107D-03
        + MIXED       -0.583244D-16     0.286097D-15    -0.485451D-04
 + CUBIC    (1)       -0.650758D-18    -0.160606D-16    -0.228280D-02
 + QUARTIC  (2)        0.787830D-18     0.208194D-16     0.364613D-02
 + CORIOLIS (3)       -0.426725D-19    -0.140785D-18    -0.199100D-03
    (1)+(2)+(3)        0.943992D-19     0.461799D-17     0.116423D-02
        = TOTAL       -0.832061D-16     0.794465D-15    -0.254953D-01
 --------------------------------------------------------------------------
  FUNDAMENTAL:      4(1)           - Anh. Freq.:   1320.714 cm^-1
 --------------------------------------------------------------------------
      Term                  X                Y                Z
     + HARMONIC        0.112467D-01     0.780871D-16    -0.159975D-16
     + ELECTRIC        0.105848D-03     0.270284D-18    -0.125191D-18
        + MIXED        0.228833D-03     0.111595D-14     0.512157D-15
 + CUBIC    (1)       -0.866320D-04    -0.601495D-18     0.123227D-18
 + QUARTIC  (2)        0.212736D-03     0.147705D-17    -0.302599D-18
 + CORIOLIS (3)       -0.313123D-04    -0.217405D-18     0.445391D-19
    (1)+(2)+(3)        0.947913D-04     0.658147D-18    -0.134833D-18
        = TOTAL        0.116762D-01     0.119497D-14     0.495899D-15
 --------------------------------------------------------------------------
  FUNDAMENTAL:      5(1)           - Anh. Freq.:   3045.508 cm^-1
 --------------------------------------------------------------------------
      Term                  X                Y                Z
     + HARMONIC        0.415502D-16    -0.452776D-01    -0.148808D-14
     + ELECTRIC        0.259647D-17    -0.101682D-02    -0.229388D-17
        + MIXED        0.345822D-15    -0.288902D-02     0.907531D-14
 + CUBIC    (1)       -0.723631D-20    -0.969826D-05    -0.765205D-18
 + QUARTIC  (2)       -0.417411D-18     0.414239D-03     0.125829D-16
 + CORIOLIS (3)        0.191886D-18    -0.151867D-03    -0.353803D-17
    (1)+(2)+(3)       -0.232762D-18     0.252674D-03     0.827970D-17
        = TOTAL        0.389736D-15    -0.489308D-01     0.759322D-14
 --------------------------------------------------------------------------
  FUNDAMENTAL:      6(1)           - Anh. Freq.:   1351.970 cm^-1
 --------------------------------------------------------------------------
      Term                  X                Y                Z
     + HARMONIC       -0.454070D-16     0.312196D-01     0.562399D-15
     + ELECTRIC       -0.717107D-18     0.280832D-03     0.633535D-18
        + MIXED       -0.363152D-15     0.401268D-03     0.396097D-14
 + CUBIC    (1)        0.245495D-19     0.417030D-04     0.310872D-17
 + QUARTIC  (2)       -0.758094D-18     0.606632D-03     0.143649D-16
 + CORIOLIS (3)        0.109419D-18    -0.113286D-03    -0.357219D-17
    (1)+(2)+(3)       -0.624126D-18     0.535049D-03     0.139014D-16
        = TOTAL       -0.409900D-15     0.324368D-01     0.453791D-14
 -----------------------------------------------------------------------

 Electric dipole : 2 quanta
 ------------------------------------------------------------------------

 --------------------------------------------------------------------------
  OVERTONE   :      1(2)                     - Anh. Freq.:   5853.712 cm^-1
 --------------------------------------------------------------------------
      Term                  X                Y                Z
     + ELECTRIC        0.410889D-15    -0.121983D-14     0.214451D-02
     + MECHANIC        0.882001D-18     0.165691D-15    -0.257743D-02
        = TOTAL        0.411771D-15    -0.105413D-14    -0.432919D-03
 --------------------------------------------------------------------------
  COMBINATION:      2(1),     1(1)           - Anh. Freq.:   4924.809 cm^-1
 --------------------------------------------------------------------------
      Term                  X                Y                Z
     + ELECTRIC        0.100031D-16    -0.109734D-13    -0.498833D-02
     + MECHANIC       -0.150371D-19    -0.391131D-17    -0.175220D-03
        = TOTAL        0.998802D-17    -0.109773D-13    -0.516355D-02
 --------------------------------------------------------------------------
  OVERTONE   :      2(2)                     - Anh. Freq.:   3926.080 cm^-1
 --------------------------------------------------------------------------
      Term                  X                Y                Z
     + ELECTRIC        0.627425D-15     0.515003D-14     0.402533D-02
     + MECHANIC        0.825765D-18    -0.284061D-16     0.404272D-02
        = TOTAL        0.628251D-15     0.512163D-14     0.806805D-02
 --------------------------------------------------------------------------
  COMBINATION:      3(1),     1(1)           - Anh. Freq.:   4543.430 cm^-1
 --------------------------------------------------------------------------
      Term                  X                Y                Z
     + ELECTRIC       -0.474140D-15    -0.690635D-14     0.561968D-04
     + MECHANIC       -0.582934D-19     0.259746D-17     0.150970D-03
        = TOTAL       -0.474198D-15    -0.690375D-14     0.207167D-03
 --------------------------------------------------------------------------
  COMBINATION:      3(1),     2(1)           - Anh. Freq.:   3586.156 cm^-1
 --------------------------------------------------------------------------
      Term                  X                Y                Z
     + ELECTRIC        0.166453D-16     0.968818D-14    -0.260022D-02
     + MECHANIC        0.930996D-18     0.658318D-16     0.411528D-03
        = TOTAL        0.175763D-16     0.975401D-14    -0.218869D-02
 --------------------------------------------------------------------------
  OVERTONE   :      3(2)                     - Anh. Freq.:   3241.884 cm^-1
 --------------------------------------------------------------------------
      Term                  X                Y                Z
     + ELECTRIC       -0.712788D-15    -0.348440D-14     0.315789D-02
     + MECHANIC       -0.105848D-17    -0.211339D-15     0.420673D-02
        = TOTAL       -0.713846D-15    -0.369574D-14     0.736463D-02
 --------------------------------------------------------------------------
  COMBINATION:      4(1),     1(1)           - Anh. Freq.:   4272.468 cm^-1
 --------------------------------------------------------------------------
      Term                  X                Y                Z
     + ELECTRIC       -0.376322D-03     0.745644D-14     0.445314D-14
     + MECHANIC        0.183066D-03     0.127105D-17    -0.260396D-18
        = TOTAL       -0.193256D-03     0.745771D-14     0.445288D-14
 --------------------------------------------------------------------------
  COMBINATION:      4(1),     2(1)           - Anh. Freq.:   3287.779 cm^-1
 --------------------------------------------------------------------------
      Term                  X                Y                Z
     + ELECTRIC        0.291640D-02    -0.499687D-14    -0.445000D-14
     + MECHANIC       -0.221659D-04    -0.153900D-18     0.315291D-19
        = TOTAL        0.289423D-02    -0.499702D-14    -0.444997D-14
 --------------------------------------------------------------------------
  COMBINATION:      4(1),     3(1)           - Anh. Freq.:   2941.250 cm^-1
 --------------------------------------------------------------------------
      Term                  X                Y                Z
     + ELECTRIC       -0.910845D-03     0.103310D-13     0.646193D-14
     + MECHANIC        0.874820D-04     0.607397D-18    -0.124436D-18
        = TOTAL       -0.823363D-03     0.103316D-13     0.646180D-14
 --------------------------------------------------------------------------
  OVERTONE   :      4(2)                     - Anh. Freq.:   2629.675 cm^-1
 --------------------------------------------------------------------------
      Term                  X                Y                Z
     + ELECTRIC       -0.230501D-16    -0.536188D-14     0.744790D-02
     + MECHANIC        0.233517D-17     0.473525D-15    -0.708496D-02
        = TOTAL       -0.207149D-16    -0.488835D-14     0.362941D-03
 --------------------------------------------------------------------------
  COMBINATION:      5(1),     1(1)           - Anh. Freq.:   5822.594 cm^-1
 --------------------------------------------------------------------------
      Term                  X                Y                Z
     + ELECTRIC        0.179860D-15    -0.713095D-02     0.133626D-13
     + MECHANIC       -0.446204D-17     0.485468D-02     0.159358D-15
        = TOTAL        0.175398D-15    -0.227627D-02     0.135219D-13
 --------------------------------------------------------------------------
  COMBINATION:      5(1),     2(1)           - Anh. Freq.:   4941.678 cm^-1
 --------------------------------------------------------------------------
      Term                  X                Y                Z
     + ELECTRIC        0.510961D-15     0.885173D-02     0.511382D-14
     + MECHANIC        0.801754D-18    -0.777704D-03    -0.231229D-16
        = TOTAL        0.511762D-15     0.807403D-02     0.509070D-14
 --------------------------------------------------------------------------
  COMBINATION:      5(1),     3(1)           - Anh. Freq.:   4567.215 cm^-1
 --------------------------------------------------------------------------
      Term                  X                Y                Z
     + ELECTRIC        0.387321D-15    -0.500158D-02    -0.216497D-13
     + MECHANIC       -0.134577D-17     0.130807D-02     0.389680D-16
        = TOTAL        0.385975D-15    -0.369351D-02    -0.216108D-13
 --------------------------------------------------------------------------
  COMBINATION:      5(1),     4(1)           - Anh. Freq.:   4283.889 cm^-1
 --------------------------------------------------------------------------
      Term                  X                Y                Z
     + ELECTRIC       -0.629319D-14    -0.143214D-14    -0.637074D-15
     + MECHANIC        0.000000D+00     0.000000D+00     0.000000D+00
        = TOTAL       -0.629319D-14    -0.143214D-14    -0.637074D-15
 --------------------------------------------------------------------------
  OVERTONE   :      5(2)                     - Anh. Freq.:   5899.722 cm^-1
 --------------------------------------------------------------------------
      Term                  X                Y                Z
     + ELECTRIC        0.112378D-14     0.317378D-13     0.581485D-02
     + MECHANIC        0.906984D-18     0.162979D-15    -0.267055D-02
        = TOTAL        0.112469D-14     0.319008D-13     0.314431D-02
 --------------------------------------------------------------------------
  COMBINATION:      6(1),     1(1)           - Anh. Freq.:   4300.724 cm^-1
 --------------------------------------------------------------------------
      Term                  X                Y                Z
     + ELECTRIC       -0.124447D-14     0.232415D-02     0.771900D-14
     + MECHANIC       -0.401785D-18     0.216167D-03     0.147634D-17
        = TOTAL       -0.124487D-14     0.254031D-02     0.772048D-14
 --------------------------------------------------------------------------
  COMBINATION:      6(1),     2(1)           - Anh. Freq.:   3327.290 cm^-1
 --------------------------------------------------------------------------
      Term                  X                Y                Z
     + ELECTRIC        0.696033D-15    -0.351182D-03     0.200394D-13
     + MECHANIC       -0.870326D-17     0.951737D-02     0.313642D-15
        = TOTAL        0.687329D-15     0.916619D-02     0.203530D-13
 --------------------------------------------------------------------------
  COMBINATION:      6(1),     3(1)           - Anh. Freq.:   2911.280 cm^-1
 --------------------------------------------------------------------------
      Term                  X                Y                Z
     + ELECTRIC       -0.239245D-14    -0.421053D-02    -0.599590D-14
     + MECHANIC        0.217220D-18     0.319981D-04     0.787427D-17
        = TOTAL       -0.239223D-14    -0.417853D-02    -0.598802D-14
 --------------------------------------------------------------------------
  COMBINATION:      6(1),     4(1)           - Anh. Freq.:   2679.836 cm^-1
 --------------------------------------------------------------------------
      Term                  X                Y                Z
     + ELECTRIC       -0.103127D-13    -0.521896D-14     0.273416D-14
     + MECHANIC        0.000000D+00     0.000000D+00     0.000000D+00
        = TOTAL       -0.103127D-13    -0.521896D-14     0.273416D-14
 --------------------------------------------------------------------------
  COMBINATION:      6(1),     5(1)           - Anh. Freq.:   4294.003 cm^-1
 --------------------------------------------------------------------------
      Term                  X                Y                Z
     + ELECTRIC       -0.776053D-15     0.119566D-12    -0.224874D-02
     + MECHANIC       -0.145572D-18     0.961672D-18     0.585067D-03
        = TOTAL       -0.776199D-15     0.119567D-12    -0.166367D-02
 --------------------------------------------------------------------------
  OVERTONE   :      6(2)                     - Anh. Freq.:   2702.049 cm^-1
 --------------------------------------------------------------------------
      Term                  X                Y                Z
     + ELECTRIC        0.109869D-14     0.138306D-12     0.174660D-02
     + MECHANIC        0.273079D-17     0.399016D-15    -0.546122D-02
        = TOTAL        0.110142D-14     0.138705D-12    -0.371462D-02
 -----------------------------------------------------------------------

 Electric dipole : 3 quanta
 ------------------------------------------------------------------------

 --------------------------------------------------------------------------
  OVERTONE   :      1(3)                     - Anh. Freq.:   8698.902 cm^-1
 --------------------------------------------------------------------------
      Term                  X                Y                Z
     + ELECTRIC       -0.113880D-18     0.217211D-18    -0.962849D-04
        + MIXED       -0.716128D-16     0.208668D-15    -0.375147D-03
 + CUBIC    (1)       -0.575931D-19    -0.108250D-16     0.168476D-03
 + QUARTIC  (2)       -0.511901D-19    -0.964904D-17     0.150585D-03
 + CORIOLIS (3)   - No Coriolis contributions -
        (1)+(2)       -0.108783D-18    -0.204741D-16     0.319060D-03
        = TOTAL       -0.718354D-16     0.188411D-15    -0.152372D-03
 --------------------------------------------------------------------------
  COMBINATION:      1(2),     2(1)           - Anh. Freq.:   7823.857 cm^-1
 --------------------------------------------------------------------------
      Term                  X                Y                Z
     + ELECTRIC       -0.466362D-19     0.889525D-19    -0.394306D-04
        + MIXED        0.190282D-17     0.744859D-15     0.331470D-03
 + CUBIC    (1)        0.108091D-20     0.213547D-18     0.201080D-05
 + QUARTIC  (2)       -0.795883D-20     0.478826D-18     0.281773D-05
 + CORIOLIS (3)        0.000000D+00     0.000000D+00     0.000000D+00
    (1)+(2)+(3)       -0.687793D-20     0.692374D-18     0.482853D-05
        = TOTAL        0.184931D-17     0.745640D-15     0.296868D-03
 --------------------------------------------------------------------------
  COMBINATION:      2(2),     1(1)           - Anh. Freq.:   6878.985 cm^-1
 --------------------------------------------------------------------------
      Term                  X                Y                Z
     + ELECTRIC        0.251406D-18    -0.479525D-18     0.212562D-03
        + MIXED        0.160799D-16     0.540433D-15     0.317333D-03
 + CUBIC    (1)        0.143969D-19     0.240506D-17    -0.265247D-04
 + QUARTIC  (2)        0.150212D-19     0.152697D-17    -0.847025D-05
 + CORIOLIS (3)        0.000000D+00     0.000000D+00     0.000000D+00
    (1)+(2)+(3)        0.294181D-19     0.393203D-17    -0.349949D-04
        = TOTAL        0.163608D-16     0.543886D-15     0.494900D-03
 --------------------------------------------------------------------------
  OVERTONE   :      2(3)                     - Anh. Freq.:   5864.285 cm^-1
 --------------------------------------------------------------------------
      Term                  X                Y                Z
     + ELECTRIC       -0.274896D-18     0.524328D-18    -0.232423D-03
        + MIXED       -0.734877D-16    -0.995605D-15    -0.565377D-03
 + CUBIC    (1)       -0.424810D-19     0.567732D-18    -0.176656D-03
 + QUARTIC  (2)       -0.397699D-19     0.425491D-18    -0.157554D-03
 + CORIOLIS (3)   - No Coriolis contributions -
        (1)+(2)       -0.822509D-19     0.993222D-18    -0.334210D-03
        = TOTAL       -0.738449D-16    -0.994087D-15    -0.113201D-02
 --------------------------------------------------------------------------
  COMBINATION:      1(2),     3(1)           - Anh. Freq.:   7412.250 cm^-1
 --------------------------------------------------------------------------
      Term                  X                Y                Z
     + ELECTRIC       -0.391534D-19     0.746800D-19    -0.331039D-04
        + MIXED        0.304889D-16     0.503568D-15     0.248648D-04
 + CUBIC    (1)        0.161842D-20     0.215678D-21    -0.332768D-05
 + QUARTIC  (2)        0.214592D-19    -0.783978D-18    -0.168931D-04
 + CORIOLIS (3)        0.000000D+00     0.000000D+00     0.000000D+00
    (1)+(2)+(3)        0.230776D-19    -0.783763D-18    -0.202207D-04
        = TOTAL        0.304728D-16     0.502859D-15    -0.284599D-04
 --------------------------------------------------------------------------
  COMBINATION:      3(1),     2(1),     1(1) - Anh. Freq.:   6508.833 cm^-1
 --------------------------------------------------------------------------
      Term                  X                Y                Z
     + ELECTRIC        0.000000D+00     0.000000D+00     0.000000D+00
        + MIXED       -0.130465D-16     0.374487D-15    -0.636218D-04
 + CUBIC    (1)       -0.285303D-19    -0.534240D-17     0.809140D-04
 + QUARTIC  (2)       -0.371258D-19    -0.588897D-17     0.105196D-03
 + CORIOLIS (3)        0.000000D+00     0.000000D+00     0.000000D+00
    (1)+(2)+(3)       -0.656561D-19    -0.112314D-16     0.186110D-03
        = TOTAL       -0.131122D-16     0.363255D-15     0.122488D-03
 --------------------------------------------------------------------------
  COMBINATION:      2(2),     3(1)           - Anh. Freq.:   5535.590 cm^-1
 --------------------------------------------------------------------------
      Term                  X                Y                Z
     + ELECTRIC        0.185504D-18    -0.353824D-18     0.156842D-03
        + MIXED       -0.224920D-16    -0.399921D-15     0.205659D-03
 + CUBIC    (1)       -0.290420D-19    -0.152173D-18    -0.735182D-04
 + QUARTIC  (2)       -0.134683D-19     0.133985D-17    -0.865978D-04
 + CORIOLIS (3)        0.000000D+00     0.000000D+00     0.000000D+00
    (1)+(2)+(3)       -0.425103D-19     0.118768D-17    -0.160116D-03
        = TOTAL       -0.223490D-16    -0.399087D-15     0.202385D-03
 --------------------------------------------------------------------------
  COMBINATION:      3(2),     1(1)           - Anh. Freq.:   6134.334 cm^-1
 --------------------------------------------------------------------------
      Term                  X                Y                Z
     + ELECTRIC        0.000000D+00     0.000000D+00     0.000000D+00
        + MIXED        0.436442D-16    -0.135798D-15     0.401159D-03
 + CUBIC    (1)        0.104429D-18     0.198215D-16    -0.306028D-03
 + QUARTIC  (2)        0.624700D-19     0.111542D-16    -0.194020D-03
 + CORIOLIS (3)        0.000000D+00     0.000000D+00     0.000000D+00
    (1)+(2)+(3)        0.166899D-18     0.309757D-16    -0.500049D-03
        = TOTAL        0.438111D-16    -0.104822D-15    -0.988899D-04
 --------------------------------------------------------------------------
  COMBINATION:      3(2),     2(1)           - Anh. Freq.:   5202.547 cm^-1
 --------------------------------------------------------------------------
      Term                  X                Y                Z
     + ELECTRIC       -0.355498D-19     0.678067D-19    -0.300571D-04
        + MIXED        0.232613D-16    -0.936180D-15    -0.573191D-03
 + CUBIC    (1)       -0.122717D-19    -0.128156D-18    -0.762925D-04
 + QUARTIC  (2)       -0.159995D-19    -0.287459D-17     0.218271D-04
 + CORIOLIS (3)        0.000000D+00     0.000000D+00     0.000000D+00
    (1)+(2)+(3)       -0.282712D-19    -0.300275D-17    -0.544653D-04
        = TOTAL        0.231975D-16    -0.939115D-15    -0.657714D-03
 --------------------------------------------------------------------------
  OVERTONE   :      3(3)                     - Anh. Freq.:   4865.156 cm^-1
 --------------------------------------------------------------------------
      Term                  X                Y                Z
     + ELECTRIC       -0.372051D-18     0.709639D-18    -0.314567D-03
        + MIXED       -0.876412D-16    -0.140940D-14     0.121576D-03
 + CUBIC    (1)       -0.186634D-19    -0.290121D-18     0.203487D-04
 + QUARTIC  (2)        0.970658D-20     0.225159D-17    -0.260452D-04
 + CORIOLIS (3)   - No Coriolis contributions -
        (1)+(2)       -0.895682D-20     0.196147D-17    -0.569653D-05
        = TOTAL       -0.880222D-16    -0.140673D-14    -0.198687D-03
 --------------------------------------------------------------------------
  COMBINATION:      1(2),     4(1)           - Anh. Freq.:   7169.777 cm^-1
 --------------------------------------------------------------------------
      Term                  X                Y                Z
     + ELECTRIC       -0.769043D-04    -0.196376D-18     0.909580D-19
        + MIXED        0.185870D-04    -0.359179D-15    -0.214759D-15
 + CUBIC    (1)       -0.286790D-05    -0.199121D-19     0.407935D-20
 + QUARTIC  (2)       -0.243812D-04    -0.169281D-18     0.346802D-19
 + CORIOLIS (3)        0.112301D-05     0.779717D-20    -0.159739D-20
    (1)+(2)+(3)       -0.261261D-04    -0.181396D-18     0.371622D-19
        = TOTAL       -0.844434D-04    -0.359557D-15    -0.214631D-15
 --------------------------------------------------------------------------
  COMBINATION:      4(1),     2(1),     1(1) - Anh. Freq.:   6238.946 cm^-1
 --------------------------------------------------------------------------
      Term                  X                Y                Z
     + ELECTRIC        0.000000D+00     0.000000D+00     0.000000D+00
        + MIXED        0.616351D-04    -0.136144D-15    -0.111639D-15
 + CUBIC    (1)       -0.242399D-06    -0.168300D-20     0.344792D-21
 + QUARTIC  (2)        0.321179D-05     0.222998D-19    -0.456850D-20
 + CORIOLIS (3)       -0.131585D-05    -0.913611D-20     0.187169D-20
    (1)+(2)+(3)        0.165354D-05     0.114807D-19    -0.235202D-20
        = TOTAL        0.632886D-04    -0.136133D-15    -0.111641D-15
 --------------------------------------------------------------------------
  COMBINATION:      2(2),     4(1)           - Anh. Freq.:   5238.287 cm^-1
 --------------------------------------------------------------------------
      Term                  X                Y                Z
     + ELECTRIC       -0.155883D-03    -0.398049D-18     0.184369D-18
        + MIXED       -0.146767D-03     0.288847D-15     0.244690D-15
 + CUBIC    (1)        0.199653D-05     0.138621D-19    -0.283990D-20
 + QUARTIC  (2)       -0.252321D-05    -0.175189D-19     0.358906D-20
 + CORIOLIS (3)        0.745139D-06     0.517358D-20    -0.105990D-20
    (1)+(2)+(3)        0.218456D-06     0.151676D-20    -0.310736D-21
        = TOTAL       -0.302431D-03     0.288451D-15     0.244874D-15
 --------------------------------------------------------------------------
  COMBINATION:      4(1),     3(1),     1(1) - Anh. Freq.:   5862.190 cm^-1
 --------------------------------------------------------------------------
      Term                  X                Y                Z
     + ELECTRIC        0.000000D+00     0.000000D+00     0.000000D+00
        + MIXED       -0.338306D-04     0.299709D-15     0.190940D-15
 + CUBIC    (1)        0.114906D-05     0.797802D-20    -0.163444D-20
 + QUARTIC  (2)       -0.321599D-05    -0.223290D-19     0.457448D-20
 + CORIOLIS (3)        0.132674D-05     0.921170D-20    -0.188718D-20
    (1)+(2)+(3)       -0.740193D-06    -0.513924D-20     0.105286D-20
        = TOTAL       -0.345708D-04     0.299704D-15     0.190941D-15
 --------------------------------------------------------------------------
  COMBINATION:      4(1),     3(1),     2(1) - Anh. Freq.:   4902.987 cm^-1
 --------------------------------------------------------------------------
      Term                  X                Y                Z
     + ELECTRIC        0.000000D+00     0.000000D+00     0.000000D+00
        + MIXED       -0.364795D-05    -0.307857D-15    -0.174318D-15
 + CUBIC    (1)       -0.440399D-05    -0.305773D-19     0.626430D-20
 + QUARTIC  (2)       -0.339719D-05    -0.235871D-19     0.483223D-20
 + CORIOLIS (3)       -0.100638D-05    -0.698743D-20     0.143150D-20
    (1)+(2)+(3)       -0.880756D-05    -0.611519D-19     0.125280D-19
        = TOTAL       -0.124555D-04    -0.307918D-15    -0.174306D-15
 --------------------------------------------------------------------------
  COMBINATION:      3(2),     4(1)           - Anh. Freq.:   4563.340 cm^-1
 --------------------------------------------------------------------------
      Term                  X                Y                Z
     + ELECTRIC        0.128430D-03     0.327948D-18    -0.151900D-18
        + MIXED       -0.928118D-04     0.943958D-15     0.589935D-15
 + CUBIC    (1)        0.160314D-04     0.111308D-18    -0.228033D-19
 + QUARTIC  (2)        0.278424D-05     0.193313D-19    -0.396035D-20
 + CORIOLIS (3)        0.631656D-06     0.438566D-20    -0.898478D-21
    (1)+(2)+(3)        0.194473D-04     0.135024D-18    -0.276621D-19
        = TOTAL        0.550656D-04     0.944421D-15     0.589755D-15
 --------------------------------------------------------------------------
  COMBINATION:      4(2),     1(1)           - Anh. Freq.:   5582.184 cm^-1
 --------------------------------------------------------------------------
      Term                  X                Y                Z
     + ELECTRIC       -0.553994D-18     0.105667D-17    -0.468398D-03
        + MIXED       -0.122456D-15     0.162515D-15    -0.334224D-03
 + CUBIC    (1)       -0.310791D-18    -0.580674D-16     0.906003D-03
 + QUARTIC  (2)        0.143454D-18     0.266193D-16    -0.436129D-03
 + CORIOLIS (3)        0.313974D-20     0.284057D-18    -0.103542D-04
    (1)+(2)+(3)       -0.164197D-18    -0.311641D-16     0.459520D-03
        = TOTAL       -0.123175D-15     0.132408D-15    -0.343102D-03
 --------------------------------------------------------------------------
  COMBINATION:      4(2),     2(1)           - Anh. Freq.:   4595.566 cm^-1
 --------------------------------------------------------------------------
      Term                  X                Y                Z
     + ELECTRIC        0.186799D-18    -0.356295D-18     0.157937D-03
        + MIXED       -0.715162D-17     0.228188D-14     0.907042D-03
 + CUBIC    (1)        0.564926D-20     0.167525D-17     0.192565D-04
 + QUARTIC  (2)       -0.203974D-20    -0.353799D-17     0.968786D-04
 + CORIOLIS (3)       -0.245101D-20    -0.263168D-18     0.836756D-05
    (1)+(2)+(3)        0.115851D-20    -0.212590D-17     0.124503D-03
        = TOTAL       -0.696366D-17     0.227939D-14     0.118948D-02
 --------------------------------------------------------------------------
  COMBINATION:      4(2),     3(1)           - Anh. Freq.:   4253.662 cm^-1
 --------------------------------------------------------------------------
      Term                  X                Y                Z
     + ELECTRIC       -0.400516D-18     0.763931D-18    -0.338633D-03
        + MIXED        0.835126D-16     0.118745D-14     0.169422D-03
 + CUBIC    (1)       -0.171782D-20    -0.307728D-17     0.113158D-05
 + QUARTIC  (2)        0.215872D-19     0.441709D-17    -0.390756D-04
 + CORIOLIS (3)        0.190053D-20     0.220272D-18    -0.654947D-05
    (1)+(2)+(3)        0.217699D-19     0.156008D-17    -0.444935D-04
        = TOTAL        0.831339D-16     0.118977D-14    -0.213705D-03
 --------------------------------------------------------------------------
  OVERTONE   :      4(3)                     - Anh. Freq.:   3936.122 cm^-1
 --------------------------------------------------------------------------
      Term                  X                Y                Z
     + ELECTRIC        0.215227D-03     0.549585D-18    -0.254558D-18
        + MIXED        0.824801D-04    -0.233923D-14    -0.137598D-14
 + CUBIC    (1)       -0.778461D-04    -0.540494D-18     0.110730D-18
 + QUARTIC  (2)        0.250408D-04     0.173861D-18    -0.356185D-19
 + CORIOLIS (3)   - No Coriolis contributions -
        (1)+(2)       -0.528053D-04    -0.366633D-18     0.751111D-19
        = TOTAL        0.244902D-03    -0.233904D-14    -0.137616D-14
 --------------------------------------------------------------------------
  COMBINATION:      1(2),     5(1)           - Anh. Freq.:   8609.238 cm^-1
 --------------------------------------------------------------------------
      Term                  X                Y                Z
     + ELECTRIC        0.655143D-18    -0.256565D-03    -0.578792D-18
        + MIXED       -0.406234D-16     0.158831D-02    -0.296648D-14
 + CUBIC    (1)        0.373624D-18    -0.406425D-03    -0.133392D-16
 + QUARTIC  (2)        0.329274D-18    -0.357950D-03    -0.117424D-16
 + CORIOLIS (3)       -0.105331D-22     0.738460D-08     0.138765D-21
    (1)+(2)+(3)        0.702887D-18    -0.764368D-03    -0.250815D-16
        = TOTAL       -0.392654D-16     0.567377D-03    -0.299214D-14
 --------------------------------------------------------------------------
  COMBINATION:      5(1),     2(1),     1(1) - Anh. Freq.:   7782.179 cm^-1
 --------------------------------------------------------------------------
      Term                  X                Y                Z
     + ELECTRIC        0.000000D+00     0.000000D+00     0.000000D+00
        + MIXED       -0.442287D-16    -0.101388D-02    -0.311160D-15
 + CUBIC    (1)       -0.564607D-19     0.582199D-04     0.182950D-17
 + QUARTIC  (2)       -0.232429D-19     0.253280D-04     0.832424D-18
 + CORIOLIS (3)        0.204492D-20    -0.143641D-05    -0.270999D-19
    (1)+(2)+(3)       -0.776587D-19     0.821116D-04     0.263483D-17
        = TOTAL       -0.443064D-16    -0.931771D-03    -0.308525D-15
 --------------------------------------------------------------------------
  COMBINATION:      2(2),     5(1)           - Anh. Freq.:   6885.294 cm^-1
 --------------------------------------------------------------------------
      Term                  X                Y                Z
     + ELECTRIC        0.133248D-17    -0.521823D-03    -0.117719D-17
        + MIXED       -0.199283D-16    -0.319566D-03     0.486734D-16
 + CUBIC    (1)       -0.499966D-19     0.534483D-04     0.173037D-17
 + QUARTIC  (2)       -0.531185D-19     0.582191D-04     0.192193D-17
 + CORIOLIS (3)       -0.243187D-20     0.223117D-05     0.626936D-19
    (1)+(2)+(3)       -0.105547D-18     0.113899D-03     0.371500D-17
        = TOTAL       -0.187014D-16    -0.727490D-03     0.512112D-16
 --------------------------------------------------------------------------
  COMBINATION:      5(1),     3(1),     1(1) - Anh. Freq.:   7377.489 cm^-1
 --------------------------------------------------------------------------
      Term                  X                Y                Z
     + ELECTRIC        0.000000D+00     0.000000D+00     0.000000D+00
        + MIXED       -0.573351D-16     0.654862D-03     0.194826D-14
 + CUBIC    (1)        0.923433D-19    -0.955617D-04    -0.301208D-17
 + QUARTIC  (2)        0.526959D-19    -0.574232D-04    -0.188726D-17
 + CORIOLIS (3)       -0.643836D-20     0.452345D-05     0.853800D-19
    (1)+(2)+(3)        0.138601D-18    -0.148461D-03    -0.481396D-17
        = TOTAL       -0.571965D-16     0.506400D-03     0.194345D-14
 --------------------------------------------------------------------------
  COMBINATION:      5(1),     3(1),     2(1) - Anh. Freq.:   6522.059 cm^-1
 --------------------------------------------------------------------------
      Term                  X                Y                Z
     + ELECTRIC        0.000000D+00     0.000000D+00     0.000000D+00
        + MIXED       -0.603399D-17    -0.136518D-03    -0.443414D-15
 + CUBIC    (1)        0.815944D-19    -0.912039D-04    -0.305562D-17
 + QUARTIC  (2)        0.154730D-18    -0.168611D-03    -0.554152D-17
 + CORIOLIS (3)        0.742268D-20    -0.731623D-05    -0.220843D-18
    (1)+(2)+(3)        0.243747D-18    -0.267131D-03    -0.881798D-17
        = TOTAL       -0.579025D-17    -0.403649D-03    -0.452232D-15
 --------------------------------------------------------------------------
  COMBINATION:      3(2),     5(1)           - Anh. Freq.:   6154.476 cm^-1
 --------------------------------------------------------------------------
      Term                  X                Y                Z
     + ELECTRIC        0.372788D-18    -0.145990D-03    -0.329343D-18
        + MIXED       -0.301526D-16    -0.712641D-03     0.166624D-14
 + CUBIC    (1)       -0.361498D-18     0.395225D-03     0.130223D-16
 + QUARTIC  (2)       -0.266481D-18     0.293769D-03     0.974079D-17
 + CORIOLIS (3)       -0.872319D-20     0.102830D-04     0.357693D-18
    (1)+(2)+(3)       -0.636703D-18     0.699277D-03     0.231207D-16
        = TOTAL       -0.304166D-16    -0.159355D-03     0.168904D-14
 --------------------------------------------------------------------------
  COMBINATION:      5(1),     4(1),     1(1) - Anh. Freq.:   7122.653 cm^-1
 --------------------------------------------------------------------------
      Term                  X                Y                Z
     + ELECTRIC        0.000000D+00     0.000000D+00     0.000000D+00
        + MIXED        0.566177D-15     0.127641D-15     0.588996D-16
 + CUBIC    (1)        0.000000D+00     0.000000D+00     0.000000D+00
 + QUARTIC  (2)        0.000000D+00     0.000000D+00     0.000000D+00
 + CORIOLIS (3)        0.000000D+00     0.000000D+00     0.000000D+00
    (1)+(2)+(3)        0.000000D+00     0.000000D+00     0.000000D+00
        = TOTAL        0.566177D-15     0.127641D-15     0.588996D-16
 --------------------------------------------------------------------------
  COMBINATION:      5(1),     4(1),     2(1) - Anh. Freq.:   6239.808 cm^-1
 --------------------------------------------------------------------------
      Term                  X                Y                Z
     + ELECTRIC        0.000000D+00     0.000000D+00     0.000000D+00
        + MIXED       -0.186831D-16     0.108435D-16    -0.217485D-16
 + CUBIC    (1)        0.000000D+00     0.000000D+00     0.000000D+00
 + QUARTIC  (2)        0.000000D+00     0.000000D+00     0.000000D+00
 + CORIOLIS (3)        0.000000D+00     0.000000D+00     0.000000D+00
    (1)+(2)+(3)        0.000000D+00     0.000000D+00     0.000000D+00
        = TOTAL       -0.186831D-16     0.108435D-16    -0.217485D-16
 --------------------------------------------------------------------------
  COMBINATION:      5(1),     4(1),     3(1) - Anh. Freq.:   5869.969 cm^-1
 --------------------------------------------------------------------------
      Term                  X                Y                Z
     + ELECTRIC        0.000000D+00     0.000000D+00     0.000000D+00
        + MIXED        0.573865D-17    -0.236124D-16     0.333600D-16
 + CUBIC    (1)        0.000000D+00     0.000000D+00     0.000000D+00
 + QUARTIC  (2)        0.000000D+00     0.000000D+00     0.000000D+00
 + CORIOLIS (3)        0.000000D+00     0.000000D+00     0.000000D+00
    (1)+(2)+(3)        0.000000D+00     0.000000D+00     0.000000D+00
        = TOTAL        0.573865D-17    -0.236124D-16     0.333600D-16
 --------------------------------------------------------------------------
  COMBINATION:      4(2),     5(1)           - Anh. Freq.:   5577.599 cm^-1
 --------------------------------------------------------------------------
      Term                  X                Y                Z
     + ELECTRIC        0.113873D-17    -0.445945D-03    -0.100602D-17
        + MIXED       -0.349214D-16     0.132017D-02    -0.294632D-14
 + CUBIC    (1)        0.106527D-17    -0.116066D-02    -0.381415D-16
 + QUARTIC  (2)       -0.569408D-18     0.619708D-03     0.203473D-16
 + CORIOLIS (3)       -0.185758D-18     0.180135D-03     0.535436D-17
    (1)+(2)+(3)        0.310101D-18    -0.360816D-03    -0.124398D-16
        = TOTAL       -0.334726D-16     0.513412D-03    -0.295977D-14
 --------------------------------------------------------------------------
  COMBINATION:      5(2),     1(1)           - Anh. Freq.:   8627.821 cm^-1
 --------------------------------------------------------------------------
      Term                  X                Y                Z
     + ELECTRIC        0.206311D-18    -0.393511D-18     0.174434D-03
        + MIXED       -0.280494D-15    -0.660447D-14    -0.147391D-02
 + CUBIC    (1)       -0.106955D-18    -0.194087D-16     0.314061D-03
 + QUARTIC  (2)       -0.979015D-19    -0.173786D-16     0.276112D-03
 + CORIOLIS (3)       -0.355998D-23     0.103095D-21     0.147784D-08
    (1)+(2)+(3)       -0.204861D-18    -0.367872D-16     0.590175D-03
        = TOTAL       -0.280493D-15    -0.664165D-14    -0.709297D-03
 --------------------------------------------------------------------------
  COMBINATION:      5(2),     2(1)           - Anh. Freq.:   7848.748 cm^-1
 --------------------------------------------------------------------------
      Term                  X                Y                Z
     + ELECTRIC       -0.947762D-18     0.180773D-17    -0.801326D-03
        + MIXED        0.379640D-16     0.740020D-15     0.551470D-03
 + CUBIC    (1)        0.134458D-19     0.230346D-17    -0.313713D-04
 + QUARTIC  (2)       -0.473528D-20     0.135432D-17     0.292704D-05
 + CORIOLIS (3)        0.974609D-21    -0.280913D-19    -0.425706D-06
    (1)+(2)+(3)        0.968511D-20     0.362968D-17    -0.288700D-04
        = TOTAL        0.370259D-16     0.745458D-15    -0.278725D-03
 --------------------------------------------------------------------------
  COMBINATION:      5(2),     3(1)           - Anh. Freq.:   7450.974 cm^-1
 --------------------------------------------------------------------------
      Term                  X                Y                Z
     + ELECTRIC        0.925238D-18    -0.176477D-17     0.782282D-03
        + MIXED       -0.243425D-16     0.544200D-15    -0.318749D-03
 + CUBIC    (1)       -0.221315D-19    -0.421144D-17     0.673242D-04
 + QUARTIC  (2)        0.159998D-19    -0.308765D-17     0.708638D-05
 + CORIOLIS (3)       -0.307448D-20     0.884381D-19     0.136924D-05
    (1)+(2)+(3)       -0.920621D-20    -0.721066D-17     0.757798D-04
        = TOTAL       -0.234265D-16     0.535225D-15     0.539313D-03
 --------------------------------------------------------------------------
  COMBINATION:      5(2),     4(1)           - Anh. Freq.:   7183.775 cm^-1
 --------------------------------------------------------------------------
      Term                  X                Y                Z
     + ELECTRIC       -0.181667D-03    -0.463889D-18     0.214865D-18
        + MIXED        0.375971D-04    -0.573292D-15    -0.347383D-15
 + CUBIC    (1)       -0.411113D-05    -0.285440D-19     0.584774D-20
 + QUARTIC  (2)       -0.276637D-04    -0.192072D-18     0.393492D-19
 + CORIOLIS (3)        0.218508D-04     0.151712D-18    -0.310810D-19
    (1)+(2)+(3)       -0.992398D-05    -0.689033D-19     0.141160D-19
        = TOTAL       -0.153994D-03    -0.573825D-15    -0.347154D-15
 --------------------------------------------------------------------------
  OVERTONE   :      5(3)                     - Anh. Freq.:   8754.649 cm^-1
 --------------------------------------------------------------------------
      Term                  X                Y                Z
     + ELECTRIC       -0.492151D-18     0.192735D-03     0.434796D-18
        + MIXED       -0.215978D-16     0.943997D-03    -0.150137D-14
 + CUBIC    (1)        0.201713D-18    -0.219080D-03    -0.718172D-17
 + QUARTIC  (2)        0.188060D-18    -0.207618D-03    -0.689173D-17
 + CORIOLIS (3)   - No Coriolis contributions -
        (1)+(2)        0.389773D-18    -0.426698D-03    -0.140735D-16
        = TOTAL       -0.217002D-16     0.710035D-03    -0.151500D-14
 --------------------------------------------------------------------------
  COMBINATION:      1(2),     6(1)           - Anh. Freq.:   7195.032 cm^-1
 --------------------------------------------------------------------------
      Term                  X                Y                Z
     + ELECTRIC       -0.327389D-18     0.128211D-03     0.289235D-18
        + MIXED        0.680943D-16    -0.161890D-03    -0.345214D-15
 + CUBIC    (1)       -0.601559D-20     0.104421D-04     0.441878D-18
 + QUARTIC  (2)        0.712270D-19    -0.456866D-04    -0.690794D-18
 + CORIOLIS (3)       -0.123039D-19     0.864356D-05     0.163111D-18
    (1)+(2)+(3)        0.529075D-19    -0.266010D-04    -0.858050D-19
        = TOTAL        0.678198D-16    -0.602797D-04    -0.345010D-15
 --------------------------------------------------------------------------
  COMBINATION:      6(1),     2(1),     1(1) - Anh. Freq.:   6275.457 cm^-1
 --------------------------------------------------------------------------
      Term                  X                Y                Z
     + ELECTRIC        0.000000D+00     0.000000D+00     0.000000D+00
        + MIXED       -0.175917D-16     0.154262D-02    -0.247817D-14
 + CUBIC    (1)        0.856243D-18    -0.931233D-03    -0.305593D-16
 + QUARTIC  (2)       -0.681039D-20     0.468249D-05     0.843517D-19
 + CORIOLIS (3)        0.964826D-20    -0.852764D-05    -0.229837D-18
    (1)+(2)+(3)        0.859081D-18    -0.935078D-03    -0.307048D-16
        = TOTAL       -0.167326D-16     0.607545D-03    -0.250887D-14
 --------------------------------------------------------------------------
  COMBINATION:      2(2),     6(1)           - Anh. Freq.:   5286.054 cm^-1
 --------------------------------------------------------------------------
      Term                  X                Y                Z
     + ELECTRIC        0.499084D-18    -0.195450D-03    -0.440921D-18
        + MIXED       -0.189223D-15    -0.256640D-02    -0.238640D-14
 + CUBIC    (1)       -0.193816D-18     0.181681D-03     0.522150D-17
 + QUARTIC  (2)       -0.289385D-20     0.383039D-05     0.143076D-18
 + CORIOLIS (3)       -0.270252D-20     0.254876D-05     0.737072D-19
    (1)+(2)+(3)       -0.199413D-18     0.188061D-03     0.543829D-17
        = TOTAL       -0.188923D-15    -0.257379D-02    -0.238141D-14
 --------------------------------------------------------------------------
  COMBINATION:      6(1),     3(1),     1(1) - Anh. Freq.:   5893.221 cm^-1
 --------------------------------------------------------------------------
      Term                  X                Y                Z
     + ELECTRIC        0.000000D+00     0.000000D+00     0.000000D+00
        + MIXED       -0.263848D-16    -0.450550D-04    -0.515507D-15
 + CUBIC    (1)        0.670405D-19    -0.707743D-04    -0.226815D-17
 + QUARTIC  (2)       -0.250336D-19     0.172119D-04     0.310059D-18
 + CORIOLIS (3)       -0.846795D-20     0.101978D-04     0.359793D-18
    (1)+(2)+(3)        0.335389D-19    -0.433647D-04    -0.159830D-17
        = TOTAL       -0.263512D-16    -0.884197D-04    -0.517105D-15
 --------------------------------------------------------------------------
  COMBINATION:      6(1),     3(1),     2(1) - Anh. Freq.:   4945.274 cm^-1
 --------------------------------------------------------------------------
      Term                  X                Y                Z
     + ELECTRIC        0.000000D+00     0.000000D+00     0.000000D+00
        + MIXED       -0.420946D-16     0.958865D-03     0.374036D-14
 + CUBIC    (1)        0.256292D-18    -0.246426D-03    -0.726466D-17
 + QUARTIC  (2)        0.235083D-19    -0.161632D-04    -0.291168D-18
 + CORIOLIS (3)        0.200792D-20    -0.244422D-05    -0.868355D-19
    (1)+(2)+(3)        0.281808D-18    -0.265033D-03    -0.764266D-17
        = TOTAL       -0.418127D-16     0.693832D-03     0.373272D-14
 --------------------------------------------------------------------------
  COMBINATION:      3(2),     6(1)           - Anh. Freq.:   4600.147 cm^-1
 --------------------------------------------------------------------------
      Term                  X                Y                Z
     + ELECTRIC        0.182875D-17    -0.716171D-03    -0.161563D-17
        + MIXED       -0.968394D-16     0.360201D-03     0.849947D-15
 + CUBIC    (1)       -0.228764D-19     0.726756D-05    -0.209575D-18
 + QUARTIC  (2)       -0.993007D-19     0.920070D-04     0.261250D-17
 + CORIOLIS (3)        0.136211D-20    -0.155986D-05    -0.531841D-19
    (1)+(2)+(3)       -0.120815D-18     0.977147D-04     0.234974D-17
        = TOTAL       -0.951314D-16    -0.258256D-03     0.850681D-15
 --------------------------------------------------------------------------
  COMBINATION:      6(1),     4(1),     1(1) - Anh. Freq.:   5626.265 cm^-1
 --------------------------------------------------------------------------
      Term                  X                Y                Z
     + ELECTRIC        0.000000D+00     0.000000D+00     0.000000D+00
        + MIXED       -0.315671D-15    -0.153451D-15     0.754030D-16
 + CUBIC    (1)        0.000000D+00     0.000000D+00     0.000000D+00
 + QUARTIC  (2)        0.000000D+00     0.000000D+00     0.000000D+00
 + CORIOLIS (3)        0.000000D+00     0.000000D+00     0.000000D+00
    (1)+(2)+(3)        0.000000D+00     0.000000D+00     0.000000D+00
        = TOTAL       -0.315671D-15    -0.153451D-15     0.754030D-16
 --------------------------------------------------------------------------
  COMBINATION:      6(1),     4(1),     2(1) - Anh. Freq.:   4650.903 cm^-1
 --------------------------------------------------------------------------
      Term                  X                Y                Z
     + ELECTRIC        0.000000D+00     0.000000D+00     0.000000D+00
        + MIXED        0.136991D-14     0.322656D-15     0.124334D-15
 + CUBIC    (1)        0.000000D+00     0.000000D+00     0.000000D+00
 + QUARTIC  (2)        0.000000D+00     0.000000D+00     0.000000D+00
 + CORIOLIS (3)        0.000000D+00     0.000000D+00     0.000000D+00
    (1)+(2)+(3)        0.000000D+00     0.000000D+00     0.000000D+00
        = TOTAL        0.136991D-14     0.322656D-15     0.124334D-15
 --------------------------------------------------------------------------
  COMBINATION:      6(1),     4(1),     3(1) - Anh. Freq.:   4303.519 cm^-1
 --------------------------------------------------------------------------
      Term                  X                Y                Z
     + ELECTRIC        0.000000D+00     0.000000D+00     0.000000D+00
        + MIXED        0.139832D-15     0.517436D-16    -0.120512D-16
 + CUBIC    (1)        0.000000D+00     0.000000D+00     0.000000D+00
 + QUARTIC  (2)        0.000000D+00     0.000000D+00     0.000000D+00
 + CORIOLIS (3)        0.000000D+00     0.000000D+00     0.000000D+00
    (1)+(2)+(3)        0.000000D+00     0.000000D+00     0.000000D+00
        = TOTAL        0.139832D-15     0.517436D-16    -0.120512D-16
 --------------------------------------------------------------------------
  COMBINATION:      4(2),     6(1)           - Anh. Freq.:   3999.029 cm^-1
 --------------------------------------------------------------------------
      Term                  X                Y                Z
     + ELECTRIC       -0.315850D-18     0.123692D-03     0.279041D-18
        + MIXED        0.218926D-15    -0.509750D-03    -0.173500D-14
 + CUBIC    (1)        0.135735D-18    -0.915132D-04    -0.157565D-17
 + QUARTIC  (2)       -0.177848D-19     0.404746D-05    -0.256288D-18
 + CORIOLIS (3)        0.917969D-20    -0.933805D-05    -0.290013D-18
    (1)+(2)+(3)        0.127130D-18    -0.968038D-04    -0.212195D-17
        = TOTAL        0.218737D-15    -0.482861D-03    -0.173685D-14
 --------------------------------------------------------------------------
  COMBINATION:      6(1),     5(1),     1(1) - Anh. Freq.:   7129.766 cm^-1
 --------------------------------------------------------------------------
      Term                  X                Y                Z
     + ELECTRIC        0.000000D+00     0.000000D+00     0.000000D+00
        + MIXED        0.757470D-16    -0.110569D-13     0.311106D-03
 + CUBIC    (1)        0.936894D-20     0.883125D-18    -0.293379D-04
 + QUARTIC  (2)        0.328642D-20     0.614605D-18    -0.950997D-05
 + CORIOLIS (3)       -0.293960D-20     0.847985D-19     0.132688D-05
    (1)+(2)+(3)        0.971575D-20     0.158253D-17    -0.375210D-04
        = TOTAL        0.757567D-16    -0.110553D-13     0.273585D-03
 --------------------------------------------------------------------------
  COMBINATION:      6(1),     5(1),     2(1) - Anh. Freq.:   6258.177 cm^-1
 --------------------------------------------------------------------------
      Term                  X                Y                Z
     + ELECTRIC        0.000000D+00     0.000000D+00     0.000000D+00
        + MIXED       -0.363229D-15    -0.911428D-14    -0.189164D-02
 + CUBIC    (1)       -0.251135D-18    -0.442782D-16     0.714627D-03
 + QUARTIC  (2)        0.841980D-21     0.887514D-20     0.336497D-05
 + CORIOLIS (3)        0.397053D-21    -0.155241D-18     0.320856D-05
    (1)+(2)+(3)       -0.249896D-18    -0.444245D-16     0.721201D-03
        = TOTAL       -0.363479D-15    -0.915871D-14    -0.117044D-02
 --------------------------------------------------------------------------
  COMBINATION:      6(1),     5(1),     3(1) - Anh. Freq.:   5882.858 cm^-1
 --------------------------------------------------------------------------
      Term                  X                Y                Z
     + ELECTRIC        0.000000D+00     0.000000D+00     0.000000D+00
        + MIXED        0.111480D-16    -0.348270D-14     0.102412D-03
 + CUBIC    (1)       -0.161752D-19    -0.330759D-17     0.429827D-04
 + QUARTIC  (2)        0.866865D-20    -0.178156D-18     0.927603D-05
 + CORIOLIS (3)        0.963777D-21     0.459871D-18    -0.117789D-04
    (1)+(2)+(3)       -0.654277D-20    -0.302588D-17     0.404799D-04
        = TOTAL        0.111415D-16    -0.348572D-14     0.142892D-03
 --------------------------------------------------------------------------
  COMBINATION:      6(1),     5(1),     4(1) - Anh. Freq.:   5603.538 cm^-1
 --------------------------------------------------------------------------
      Term                  X                Y                Z
     + ELECTRIC        0.000000D+00     0.000000D+00     0.000000D+00
        + MIXED       -0.458823D-04     0.209768D-15     0.145667D-15
 + CUBIC    (1)        0.629859D-06     0.437318D-20    -0.895923D-21
 + QUARTIC  (2)        0.653834D-06     0.453964D-20    -0.930025D-21
 + CORIOLIS (3)       -0.100875D-04    -0.700385D-19     0.143486D-19
    (1)+(2)+(3)       -0.880380D-05    -0.611257D-19     0.125227D-19
        = TOTAL       -0.546861D-04     0.209707D-15     0.145680D-15
 --------------------------------------------------------------------------
  COMBINATION:      5(2),     6(1)           - Anh. Freq.:   7172.746 cm^-1
 --------------------------------------------------------------------------
      Term                  X                Y                Z
     + ELECTRIC       -0.222476D-17     0.871256D-03     0.196549D-17
        + MIXED        0.966992D-16    -0.416303D-03    -0.876932D-15
 + CUBIC    (1)       -0.155577D-19     0.200810D-04     0.739387D-18
 + QUARTIC  (2)        0.123644D-18    -0.102499D-03    -0.255017D-17
 + CORIOLIS (3)        0.000000D+00     0.000000D+00     0.000000D+00
    (1)+(2)+(3)        0.108086D-18    -0.824179D-04    -0.181078D-17
        = TOTAL        0.945825D-16     0.372535D-03    -0.876777D-15
 --------------------------------------------------------------------------
  COMBINATION:      6(2),     1(1)           - Anh. Freq.:   5642.397 cm^-1
 --------------------------------------------------------------------------
      Term                  X                Y                Z
     + ELECTRIC       -0.153229D-18     0.292265D-18    -0.129554D-03
        + MIXED       -0.700048D-16     0.445341D-14    -0.475697D-03
 + CUBIC    (1)       -0.256642D-18    -0.486834D-16     0.759786D-03
 + QUARTIC  (2)        0.934780D-19     0.208149D-16    -0.346726D-03
 + CORIOLIS (3)        0.175428D-20     0.961757D-18    -0.237915D-04
    (1)+(2)+(3)       -0.161409D-18    -0.269067D-16     0.389269D-03
        = TOTAL       -0.703195D-16     0.442679D-14    -0.215983D-03
 --------------------------------------------------------------------------
  COMBINATION:      6(2),     2(1)           - Anh. Freq.:   4678.291 cm^-1
 --------------------------------------------------------------------------
      Term                  X                Y                Z
     + ELECTRIC        0.431798D-19    -0.823598D-19     0.365082D-04
        + MIXED        0.221550D-15    -0.345615D-13     0.155959D-02
 + CUBIC    (1)        0.314165D-19     0.437221D-18    -0.148423D-03
 + QUARTIC  (2)        0.499726D-20    -0.195117D-17     0.454699D-04
 + CORIOLIS (3)       -0.711489D-21    -0.284901D-18     0.657469D-05
    (1)+(2)+(3)        0.357022D-19    -0.179885D-17    -0.963781D-04
        = TOTAL        0.221628D-15    -0.345633D-13     0.149972D-02
 --------------------------------------------------------------------------
  COMBINATION:      6(2),     3(1)           - Anh. Freq.:   4325.427 cm^-1
 --------------------------------------------------------------------------
      Term                  X                Y                Z
     + ELECTRIC       -0.751098D-18     0.143262D-17    -0.635048D-03
        + MIXED        0.815515D-16    -0.465232D-14    -0.983090D-04
 + CUBIC    (1)        0.237241D-19     0.259597D-17    -0.111602D-03
 + QUARTIC  (2)       -0.567419D-19    -0.657521D-17     0.136884D-03
 + CORIOLIS (3)       -0.295518D-21    -0.105237D-18     0.234609D-05
    (1)+(2)+(3)       -0.333133D-19    -0.408448D-17     0.276281D-04
        = TOTAL        0.807671D-16    -0.465497D-14    -0.705729D-03
 --------------------------------------------------------------------------
  COMBINATION:      6(2),     4(1)           - Anh. Freq.:   4033.987 cm^-1
 --------------------------------------------------------------------------
      Term                  X                Y                Z
     + ELECTRIC        0.629319D-04     0.160697D-18    -0.744322D-19
        + MIXED        0.684751D-04    -0.147529D-14    -0.879258D-15
 + CUBIC    (1)       -0.389855D-04    -0.270680D-18     0.554536D-19
 + QUARTIC  (2)        0.897967D-05     0.623468D-19    -0.127728D-19
 + CORIOLIS (3)        0.404532D-06     0.280871D-20    -0.575413D-21
    (1)+(2)+(3)       -0.296013D-04    -0.205525D-18     0.421054D-19
        = TOTAL        0.101806D-03    -0.147534D-14    -0.879291D-15
 --------------------------------------------------------------------------
  COMBINATION:      6(2),     5(1)           - Anh. Freq.:   5601.528 cm^-1
 --------------------------------------------------------------------------
      Term                  X                Y                Z
     + ELECTRIC        0.102526D-17    -0.401510D-03    -0.905777D-18
        + MIXED       -0.100449D-15     0.123983D-02    -0.234813D-14
 + CUBIC    (1)        0.943522D-18    -0.102474D-02    -0.335916D-16
 + QUARTIC  (2)       -0.406531D-18     0.435260D-03     0.141086D-16
 + CORIOLIS (3)        0.000000D+00     0.000000D+00     0.000000D+00
    (1)+(2)+(3)        0.536991D-18    -0.589476D-03    -0.194830D-16
        = TOTAL       -0.988872D-16     0.248844D-03    -0.236852D-14
 --------------------------------------------------------------------------
  OVERTONE   :      6(3)                     - Anh. Freq.:   4040.996 cm^-1
 --------------------------------------------------------------------------
      Term                  X                Y                Z
     + ELECTRIC       -0.273650D-18     0.107166D-03     0.241759D-18
        + MIXED        0.449603D-15    -0.563058D-03    -0.231645D-14
 + CUBIC    (1)        0.572392D-19     0.133679D-04     0.236250D-17
 + QUARTIC  (2)        0.401665D-19    -0.717463D-04    -0.306834D-17
 + CORIOLIS (3)   - No Coriolis contributions -
        (1)+(2)        0.974058D-19    -0.583783D-04    -0.705839D-18
        = TOTAL        0.449427D-15    -0.514270D-03    -0.231691D-14
 -----------------------------------------------------------------------

 Polarizability tensor [Alpha(0,0)]  : 1 quantum
 ------------------------------------------------------------------------

 --------------------------------------------------------------------------
  FUNDAMENTAL:      1(1)           - Anh. Freq.:   2954.078 cm^-1
 --------------------------------------------------------------------------
      Term                  X                Y                Z
     + HARMONIC  X     0.194764D+00
                 Y    -0.274422D-14     0.154070D+01
                 Z    -0.271189D-14     0.122634D-12     0.586808D+00
     + ELECTRIC  X     0.157218D-02
                 Y    -0.100807D-15     0.410498D-01
                 Z    -0.175660D-17     0.924091D-16     0.869821D-04
        + MIXED  X     0.256502D-01
                 Y     0.464015D-12     0.113707D+00
                 Z    -0.469742D-13    -0.175621D-12     0.423194D-01
 + CUBIC    (1)  X    -0.202634D-02
                 Y     0.453357D-16    -0.253324D-01
                 Z     0.342740D-16    -0.216382D-14    -0.895566D-02
 + QUARTIC  (2)  X    -0.143799D-02
                 Y     0.239618D-16    -0.137309D-01
                 Z     0.246932D-16    -0.104530D-14    -0.390072D-02
 + CORIOLIS (3)  X    -0.165482D-03
                 Y    -0.611466D-18     0.396718D-03
                 Z     0.425205D-18     0.378129D-16    -0.258364D-03
    (1)+(2)+(3)  X    -0.362982D-02
                 Y     0.686860D-16    -0.386666D-01
                 Z     0.593924D-16    -0.317131D-14    -0.131147D-01
        = TOTAL  X     0.218357D+00
                 Y     0.461239D-12     0.165679D+01
                 Z    -0.496284D-13    -0.560660D-13     0.616100D+00
 --------------------------------------------------------------------------
  FUNDAMENTAL:      2(1)           - Anh. Freq.:   1971.318 cm^-1
 --------------------------------------------------------------------------
      Term                  X                Y                Z
     + HARMONIC  X     0.226159D+00
                 Y     0.560965D-16    -0.127495D+00
                 Z    -0.672107D-15    -0.724510D-14     0.546037D+00
     + ELECTRIC  X    -0.283559D-02
                 Y     0.272674D-16    -0.135140D-01
                 Z    -0.904238D-17    -0.684246D-17    -0.104809D-01
        + MIXED  X    -0.593414D-03
                 Y    -0.141728D-13    -0.229289D-02
                 Z    -0.830639D-13     0.619945D-12     0.922939D-02
 + CUBIC    (1)  X    -0.146992D-02
                 Y     0.245956D-16    -0.994477D-02
                 Z    -0.201361D-16    -0.183510D-14    -0.184436D-01
 + QUARTIC  (2)  X     0.104138D-02
                 Y     0.260309D-17    -0.836676D-02
                 Z     0.687080D-16     0.103192D-14     0.246759D-01
 + CORIOLIS (3)  X     0.446490D-04
                 Y    -0.200659D-17     0.153754D-02
                 Z    -0.572747D-17     0.237398D-16    -0.109677D-02
    (1)+(2)+(3)  X    -0.383894D-03
                 Y     0.251922D-16    -0.167740D-01
                 Z     0.428445D-16    -0.779446D-15     0.513551D-02
        = TOTAL  X     0.222346D+00
                 Y    -0.140643D-13    -0.160076D+00
                 Z    -0.837022D-13     0.611913D-12     0.549921D+00
 --------------------------------------------------------------------------
  FUNDAMENTAL:      3(1)           - Anh. Freq.:   1620.165 cm^-1
 --------------------------------------------------------------------------
      Term                  X                Y                Z
     + HARMONIC  X     0.400636D-01
                 Y    -0.257490D-16    -0.136788D+00
                 Z     0.133514D-14     0.251946D-13     0.569233D+00
     + ELECTRIC  X    -0.266777D-02
                 Y     0.594971D-16    -0.259679D-01
                 Z     0.352207D-16    -0.119742D-15     0.271111D-01
        + MIXED  X    -0.893687D-03
                 Y    -0.836459D-13    -0.753323D-02
                 Z     0.927338D-13     0.716384D-13     0.105155D-01
 + CUBIC    (1)  X     0.867765D-02
                 Y    -0.912651D-17     0.182950D-02
                 Z    -0.350078D-16     0.232399D-15     0.212301D-01
 + QUARTIC  (2)  X    -0.129783D-01
                 Y     0.292303D-17     0.236886D-02
                 Z     0.576852D-16     0.374076D-15    -0.270053D-01
 + CORIOLIS (3)  X     0.591277D-03
                 Y     0.702323D-18    -0.639713D-03
                 Z    -0.157397D-17    -0.486287D-16     0.132768D-02
    (1)+(2)+(3)  X    -0.370942D-02
                 Y    -0.550116D-17     0.355865D-02
                 Z     0.211034D-16     0.557846D-15    -0.444749D-02
        = TOTAL  X     0.327927D-01
                 Y    -0.836177D-13    -0.166730D+00
                 Z     0.941253D-13     0.972711D-13     0.602412D+00
 --------------------------------------------------------------------------
  FUNDAMENTAL:      4(1)           - Anh. Freq.:   1320.714 cm^-1
 --------------------------------------------------------------------------
      Term                  X                Y                Z
     + HARMONIC  X    -0.260608D-14
                 Y    -0.563319D-13    -0.137209D-13
                 Z    -0.193313D-01    -0.101176D-14     0.517594D-14
     + ELECTRIC  X    -0.341628D-16
                 Y     0.325805D-16     0.166390D-30
                 Z    -0.144422D-01    -0.368783D-16     0.341628D-16
        + MIXED  X    -0.791135D-13
                 Y    -0.120965D-13    -0.178641D-11
                 Z    -0.723236D-02    -0.533902D-12    -0.253315D-12
 + CUBIC    (1)  X     0.200743D-16
                 Y     0.433917D-15     0.105691D-15
                 Z     0.148907D-03     0.779342D-17    -0.398696D-16
 + QUARTIC  (2)  X    -0.492950D-16
                 Y    -0.106554D-14    -0.259536D-15
                 Z    -0.365659D-03    -0.191377D-16     0.979047D-16
 + CORIOLIS (3)  X     0.725567D-17
                 Y     0.156835D-15     0.382008D-16
                 Z     0.538208D-04     0.281686D-17    -0.144105D-16
    (1)+(2)+(3)  X    -0.219650D-16
                 Y    -0.474786D-15    -0.115645D-15
                 Z    -0.162931D-03    -0.852744D-17     0.436247D-16
        = TOTAL  X    -0.817757D-13
                 Y    -0.688706D-13    -0.180025D-11
                 Z    -0.411688D-01    -0.534959D-12    -0.248061D-12
 --------------------------------------------------------------------------
  FUNDAMENTAL:      5(1)           - Anh. Freq.:   3045.508 cm^-1
 --------------------------------------------------------------------------
      Term                  X                Y                Z
     + HARMONIC  X    -0.186888D-13
                 Y     0.138931D-14    -0.311176D-12
                 Z     0.347348D-14    -0.882941D+00    -0.512331D-13
     + ELECTRIC  X     0.954601D-31
                 Y    -0.186919D-16     0.713048D-16
                 Z     0.403554D-16    -0.158039D-01    -0.713048D-16
        + MIXED  X     0.237497D-12
                 Y     0.105393D-13     0.975386D-12
                 Z    -0.101576D-12    -0.461873D-01     0.110417D-11
 + CUBIC    (1)  X    -0.269357D-16
                 Y     0.137969D-17    -0.230140D-15
                 Z     0.176729D-17    -0.952076D-03    -0.108933D-15
 + QUARTIC  (2)  X     0.118008D-15
                 Y    -0.102110D-16     0.246926D-14
                 Z    -0.294146D-16     0.631551D-02     0.242443D-15
 + CORIOLIS (3)  X     0.119580D-16
                 Y     0.113781D-17    -0.511595D-15
                 Z     0.831983D-17    -0.478183D-03     0.147001D-15
    (1)+(2)+(3)  X     0.103030D-15
                 Y    -0.769347D-17     0.172752D-14
                 Z    -0.193275D-16     0.488525D-02     0.280511D-15
        = TOTAL  X     0.218911D-12
                 Y     0.119022D-13     0.666008D-12
                 Z    -0.980813D-13    -0.940047D+00     0.105315D-11
 --------------------------------------------------------------------------
  FUNDAMENTAL:      6(1)           - Anh. Freq.:   1351.970 cm^-1
 --------------------------------------------------------------------------
      Term                  X                Y                Z
     + HARMONIC  X    -0.109294D-13
                 Y     0.165823D-15     0.447784D-13
                 Z    -0.133233D-14    -0.183530D+00    -0.664047D-13
     + ELECTRIC  X     0.958081D-31
                 Y    -0.187601D-16     0.715647D-16
                 Z     0.405025D-16    -0.158615D-01    -0.715647D-16
        + MIXED  X    -0.215194D-12
                 Y     0.381465D-13    -0.129992D-11
                 Z    -0.178045D-13    -0.674009D-02    -0.351104D-12
 + CUBIC    (1)  X     0.106492D-15
                 Y    -0.549234D-17     0.923077D-15
                 Z    -0.718297D-17     0.378347D-02     0.428549D-15
 + QUARTIC  (2)  X    -0.358384D-16
                 Y    -0.510780D-17     0.212860D-14
                 Z    -0.337658D-16     0.230693D-02    -0.536242D-15
 + CORIOLIS (3)  X    -0.390016D-16
                 Y     0.311001D-17    -0.723264D-15
                 Z     0.834458D-17    -0.195103D-02    -0.950459D-16
    (1)+(2)+(3)  X     0.316518D-16
                 Y    -0.749013D-17     0.232841D-14
                 Z    -0.326042D-16     0.413937D-02    -0.202739D-15
        = TOTAL  X    -0.226092D-12
                 Y     0.382861D-13    -0.125274D-11
                 Z    -0.191289D-13    -0.201992D+00    -0.417783D-12
 -----------------------------------------------------------------------

 Polarizability tensor [Alpha(0,0)]  : 2 quanta
 ------------------------------------------------------------------------

 --------------------------------------------------------------------------
  OVERTONE   :      1(2)                     - Anh. Freq.:   5853.712 cm^-1
 --------------------------------------------------------------------------
      Term                  X                Y                Z
     + ELECTRIC  X     0.119399D-01
                 Y     0.257081D-12     0.178579D+00
                 Z    -0.287943D-12    -0.196464D-11     0.333124D-01
     + MECHANIC  X    -0.138106D-01
                 Y     0.195189D-15    -0.109609D+00
                 Z     0.192812D-15    -0.872252D-14    -0.416169D-01
        = TOTAL  X    -0.187072D-02
                 Y     0.257276D-12     0.689704D-01
                 Z    -0.287750D-12    -0.197336D-11    -0.830460D-02
 --------------------------------------------------------------------------
  COMBINATION:      2(1),     1(1)           - Anh. Freq.:   4924.809 cm^-1
 --------------------------------------------------------------------------
      Term                  X                Y                Z
     + ELECTRIC  X    -0.906366D-02
                 Y    -0.843036D-13    -0.446722D-01
                 Z    -0.270497D-12     0.217897D-11    -0.344094D-01
     + MECHANIC  X     0.937051D-03
                 Y    -0.194646D-17     0.110904D-02
                 Z    -0.827595D-17     0.639234D-17     0.113666D-02
        = TOTAL  X    -0.812661D-02
                 Y    -0.843055D-13    -0.435631D-01
                 Z    -0.270505D-12     0.217897D-11    -0.332727D-01
 --------------------------------------------------------------------------
  OVERTONE   :      2(2)                     - Anh. Freq.:   3926.080 cm^-1
 --------------------------------------------------------------------------
      Term                  X                Y                Z
     + ELECTRIC  X     0.612102D-02
                 Y    -0.443230D-13     0.439990D-01
                 Z    -0.216426D-12    -0.461966D-12     0.621369D-01
     + MECHANIC  X    -0.828313D-02
                 Y    -0.422057D-16     0.293440D-01
                 Z    -0.163850D-16     0.194513D-14    -0.216075D-01
        = TOTAL  X    -0.216211D-02
                 Y    -0.443652D-13     0.733430D-01
                 Z    -0.216442D-12    -0.460021D-12     0.405294D-01
 --------------------------------------------------------------------------
  COMBINATION:      3(1),     1(1)           - Anh. Freq.:   4543.430 cm^-1
 --------------------------------------------------------------------------
      Term                  X                Y                Z
     + ELECTRIC  X    -0.232110D-02
                 Y    -0.242904D-12    -0.617549D-01
                 Z     0.162187D-12    -0.177124D-13     0.499933D-01
     + MECHANIC  X    -0.627657D-03
                 Y    -0.111380D-17     0.239784D-03
                 Z     0.858305D-17     0.189189D-15     0.893109D-03
        = TOTAL  X    -0.294876D-02
                 Y    -0.242905D-12    -0.615151D-01
                 Z     0.162195D-12    -0.175232D-13     0.508864D-01
 --------------------------------------------------------------------------
  COMBINATION:      3(1),     2(1)           - Anh. Freq.:   3586.156 cm^-1
 --------------------------------------------------------------------------
      Term                  X                Y                Z
     + ELECTRIC  X    -0.131885D-01
                 Y     0.329900D-13    -0.406420D-01
                 Z     0.343889D-12     0.118623D-11    -0.341722D-01
     + MECHANIC  X    -0.997206D-02
                 Y     0.797795D-16    -0.414944D-01
                 Z     0.760541D-16    -0.375151D-14    -0.327275D-01
        = TOTAL  X    -0.231606D-01
                 Y     0.330698D-13    -0.821364D-01
                 Z     0.343965D-12     0.118248D-11    -0.668997D-01
 --------------------------------------------------------------------------
  OVERTONE   :      3(2)                     - Anh. Freq.:   3241.884 cm^-1
 --------------------------------------------------------------------------
      Term                  X                Y                Z
     + ELECTRIC  X     0.222283D-01
                 Y    -0.246056D-13     0.934433D-01
                 Z     0.239916D-12     0.455439D-13     0.671445D-01
     + MECHANIC  X     0.151250D-01
                 Y    -0.256665D-15     0.144560D+00
                 Z    -0.234785D-15     0.116857D-13     0.502762D-01
        = TOTAL  X     0.373533D-01
                 Y    -0.248623D-13     0.238004D+00
                 Z     0.239682D-12     0.572296D-13     0.117421D+00
 --------------------------------------------------------------------------
  COMBINATION:      4(1),     1(1)           - Anh. Freq.:   4272.468 cm^-1
 --------------------------------------------------------------------------
      Term                  X                Y                Z
     + ELECTRIC  X     0.831217D-13
                 Y     0.707263D-12    -0.899837D-11
                 Z    -0.654746D-01    -0.295162D-11    -0.609677D-12
     + MECHANIC  X    -0.424199D-16
                 Y    -0.916930D-15    -0.223339D-15
                 Z    -0.314661D-03    -0.164686D-16     0.842502D-16
        = TOTAL  X     0.830792D-13
                 Y     0.706346D-12    -0.899859D-11
                 Z    -0.657893D-01    -0.295164D-11    -0.609593D-12
 --------------------------------------------------------------------------
  COMBINATION:      4(1),     2(1)           - Anh. Freq.:   3287.779 cm^-1
 --------------------------------------------------------------------------
      Term                  X                Y                Z
     + ELECTRIC  X    -0.132004D-11
                 Y    -0.127655D-11    -0.268951D-11
                 Z     0.445218D-01     0.531571D-13    -0.264971D-11
     + MECHANIC  X     0.513627D-17
                 Y     0.111023D-15     0.270423D-16
                 Z     0.380996D-04     0.199405D-17    -0.102011D-16
        = TOTAL  X    -0.132003D-11
                 Y    -0.127644D-11    -0.268948D-11
                 Z     0.445599D-01     0.531591D-13    -0.264972D-11
 --------------------------------------------------------------------------
  COMBINATION:      4(1),     3(1)           - Anh. Freq.:   2941.250 cm^-1
 --------------------------------------------------------------------------
      Term                  X                Y                Z
     + ELECTRIC  X     0.162499D-11
                 Y     0.127141D-12     0.374926D-11
                 Z    -0.151973D-01    -0.361186D-12     0.460520D-11
     + MECHANIC  X    -0.202713D-16
                 Y    -0.438175D-15    -0.106728D-15
                 Z    -0.150368D-03    -0.786989D-17     0.402608D-16
        = TOTAL  X     0.162497D-11
                 Y     0.126702D-12     0.374916D-11
                 Z    -0.153477D-01    -0.361194D-12     0.460524D-11
 --------------------------------------------------------------------------
  OVERTONE   :      4(2)                     - Anh. Freq.:   2629.675 cm^-1
 --------------------------------------------------------------------------
      Term                  X                Y                Z
     + ELECTRIC  X     0.882766D-01
                 Y     0.183985D-11     0.120964D+00
                 Z     0.358206D-12     0.639582D-12     0.746626D-01
     + MECHANIC  X    -0.399734D-01
                 Y     0.549318D-15    -0.309477D+00
                 Z     0.562199D-15    -0.242555D-13    -0.114695D+00
        = TOTAL  X     0.483032D-01
                 Y     0.184040D-11    -0.188513D+00
                 Z     0.358769D-12     0.615326D-12    -0.400326D-01
 --------------------------------------------------------------------------
  COMBINATION:      5(1),     1(1)           - Anh. Freq.:   5822.594 cm^-1
 --------------------------------------------------------------------------
      Term                  X                Y                Z
     + ELECTRIC  X     0.101473D-11
                 Y    -0.553851D-13     0.164384D-11
                 Z    -0.322005D-12    -0.112732D+00     0.224761D-11
     + MECHANIC  X     0.199384D-14
                 Y    -0.148491D-15     0.332932D-13
                 Z    -0.371981D-15     0.943369D-01     0.545057D-14
        = TOTAL  X     0.101672D-11
                 Y    -0.555336D-13     0.167713D-11
                 Z    -0.322377D-12    -0.183949D-01     0.225307D-11
 --------------------------------------------------------------------------
  COMBINATION:      5(1),     2(1)           - Anh. Freq.:   4941.678 cm^-1
 --------------------------------------------------------------------------
      Term                  X                Y                Z
     + ELECTRIC  X    -0.298979D-12
                 Y    -0.134590D-12    -0.559963D-11
                 Z     0.170632D-12     0.587905D-01    -0.225940D-11
     + MECHANIC  X    -0.195835D-15
                 Y     0.179569D-16    -0.445252D-14
                 Z     0.540763D-16    -0.110014D-01    -0.345320D-15
        = TOTAL  X    -0.299175D-12
                 Y    -0.134572D-12    -0.560409D-11
                 Z     0.170686D-12     0.477891D-01    -0.225974D-11
 --------------------------------------------------------------------------
  COMBINATION:      5(1),     3(1)           - Anh. Freq.:   4567.215 cm^-1
 --------------------------------------------------------------------------
      Term                  X                Y                Z
     + ELECTRIC  X     0.525224D-12
                 Y     0.105719D-12     0.241678D-11
                 Z     0.152487D-12    -0.498590D-01     0.141120D-11
     + MECHANIC  X     0.333295D-15
                 Y    -0.303872D-16     0.751684D-14
                 Z    -0.911288D-16     0.186339D-01     0.597508D-15
        = TOTAL  X     0.525558D-12
                 Y     0.105689D-12     0.242429D-11
                 Z     0.152396D-12    -0.312252D-01     0.141180D-11
 --------------------------------------------------------------------------
  COMBINATION:      5(1),     4(1)           - Anh. Freq.:   4283.889 cm^-1
 --------------------------------------------------------------------------
      Term                  X                Y                Z
     + ELECTRIC  X     0.708526D-12
                 Y     0.724744D-01     0.528056D-11
                 Z     0.203773D-11     0.364190D-11     0.225001D-11
     + MECHANIC  X     0.000000D+00
                 Y     0.000000D+00     0.000000D+00
                 Z     0.000000D+00     0.000000D+00     0.000000D+00
        = TOTAL  X     0.708526D-12
                 Y     0.724744D-01     0.528056D-11
                 Z     0.203773D-11     0.364190D-11     0.225001D-11
 --------------------------------------------------------------------------
  OVERTONE   :      5(2)                     - Anh. Freq.:   5899.722 cm^-1
 --------------------------------------------------------------------------
      Term                  X                Y                Z
     + ELECTRIC  X     0.253322D-01
                 Y     0.232103D-12     0.748777D-01
                 Z     0.371605D-12    -0.239930D-12     0.900264D-01
     + MECHANIC  X    -0.132794D-01
                 Y     0.194599D-15    -0.109069D+00
                 Z     0.186161D-15    -0.878202D-14    -0.417418D-01
        = TOTAL  X     0.120528D-01
                 Y     0.232298D-12    -0.341910D-01
                 Z     0.371791D-12    -0.248712D-12     0.482846D-01
 --------------------------------------------------------------------------
  COMBINATION:      6(1),     1(1)           - Anh. Freq.:   4300.724 cm^-1
 --------------------------------------------------------------------------
      Term                  X                Y                Z
     + ELECTRIC  X    -0.727188D-12
                 Y     0.258813D-12    -0.764078D-11
                 Z    -0.222812D-12    -0.404136D-01    -0.212423D-11
     + MECHANIC  X    -0.199865D-15
                 Y     0.700815D-17    -0.575291D-15
                 Z    -0.368373D-17    -0.540244D-02    -0.990272D-15
        = TOTAL  X    -0.727388D-12
                 Y     0.258820D-12    -0.764135D-11
                 Z    -0.222816D-12    -0.458161D-01    -0.212522D-11
 --------------------------------------------------------------------------
  COMBINATION:      6(1),     2(1)           - Anh. Freq.:   3327.290 cm^-1
 --------------------------------------------------------------------------
      Term                  X                Y                Z
     + ELECTRIC  X    -0.101056D-11
                 Y     0.158202D-12     0.217317D-11
                 Z     0.675003D-13     0.112756D-01     0.773307D-12
     + MECHANIC  X     0.397189D-14
                 Y    -0.294085D-15     0.657193D-13
                 Z    -0.732066D-15     0.187041D+00     0.109550D-13
        = TOTAL  X    -0.100658D-11
                 Y     0.157908D-12     0.223888D-11
                 Z     0.667682D-13     0.198317D+00     0.784262D-12
 --------------------------------------------------------------------------
  COMBINATION:      6(1),     3(1)           - Anh. Freq.:   2911.280 cm^-1
 --------------------------------------------------------------------------
      Term                  X                Y                Z
     + ELECTRIC  X     0.744947D-12
                 Y    -0.286450D-12     0.146493D-11
                 Z     0.221870D-12    -0.371356D-01     0.783554D-12
     + MECHANIC  X     0.363652D-15
                 Y    -0.175180D-16     0.271823D-14
                 Z    -0.180920D-16     0.122830D-01     0.153316D-14
        = TOTAL  X     0.745311D-12
                 Y    -0.286468D-12     0.146765D-11
                 Z     0.221852D-12    -0.248526D-01     0.785087D-12
 --------------------------------------------------------------------------
  COMBINATION:      6(1),     4(1)           - Anh. Freq.:   2679.836 cm^-1
 --------------------------------------------------------------------------
      Term                  X                Y                Z
     + ELECTRIC  X    -0.373613D-12
                 Y    -0.168880D-01    -0.176002D-11
                 Z    -0.159351D-11     0.216388D-12    -0.864875D-12
     + MECHANIC  X     0.000000D+00
                 Y     0.000000D+00     0.000000D+00
                 Z     0.000000D+00     0.000000D+00     0.000000D+00
        = TOTAL  X    -0.373613D-12
                 Y    -0.168880D-01    -0.176002D-11
                 Z    -0.159351D-11     0.216388D-12    -0.864875D-12
 --------------------------------------------------------------------------
  COMBINATION:      6(1),     5(1)           - Anh. Freq.:   4294.003 cm^-1
 --------------------------------------------------------------------------
      Term                  X                Y                Z
     + ELECTRIC  X    -0.886679D-02
                 Y     0.988822D-13    -0.976909D-01
                 Z    -0.168645D-12     0.479847D-11     0.760892D-01
     + MECHANIC  X    -0.146347D-02
                 Y    -0.969761D-17     0.465340D-02
                 Z     0.157104D-16     0.787609D-15     0.273545D-02
        = TOTAL  X    -0.103303D-01
                 Y     0.988725D-13    -0.930375D-01
                 Z    -0.168629D-12     0.479925D-11     0.788247D-01
 --------------------------------------------------------------------------
  OVERTONE   :      6(2)                     - Anh. Freq.:   2702.049 cm^-1
 --------------------------------------------------------------------------
      Term                  X                Y                Z
     + ELECTRIC  X     0.310226D-01
                 Y     0.413575D-13     0.106528D+00
                 Z     0.179619D-14     0.270925D-11     0.715889D-01
     + MECHANIC  X    -0.359695D-01
                 Y     0.480336D-15    -0.266329D+00
                 Z     0.452542D-15    -0.218971D-13    -0.116194D+00
        = TOTAL  X    -0.494688D-02
                 Y     0.418378D-13    -0.159801D+00
                 Z     0.224873D-14     0.268736D-11    -0.446048D-01
 -----------------------------------------------------------------------

 Polarizability tensor [Alpha(0,0)]  : 3 quanta
 ------------------------------------------------------------------------

 --------------------------------------------------------------------------
  OVERTONE   :      1(3)                     - Anh. Freq.:   8698.902 cm^-1
 --------------------------------------------------------------------------
      Term                  X                Y                Z
     + ELECTRIC  X    -0.141557D-03
                 Y    -0.345810D-16     0.134010D-01
                 Z    -0.549208D-18     0.315985D-16    -0.605909D-03
        + MIXED  X    -0.208309D-02
                 Y    -0.448302D-13    -0.311296D-01
                 Z     0.500922D-13     0.342946D-12    -0.581087D-02
 + CUBIC    (1)  X     0.902023D-03
                 Y    -0.127522D-16     0.716120D-02
                 Z    -0.125968D-16     0.569859D-15     0.271809D-02
 + QUARTIC  (2)  X     0.802770D-03
                 Y    -0.113668D-16     0.638405D-02
                 Z    -0.112278D-16     0.507918D-15     0.241866D-02
 + CORIOLIS (3)   - No Coriolis contributions -
        (1)+(2)  X     0.170479D-02
                 Y    -0.241190D-16     0.135453D-01
                 Z    -0.238246D-16     0.107778D-14     0.513675D-02
        = TOTAL  X    -0.519854D-03
                 Y    -0.448889D-13    -0.418333D-02
                 Z     0.500678D-13     0.344055D-12    -0.128003D-02
 --------------------------------------------------------------------------
  COMBINATION:      1(2),     2(1)           - Anh. Freq.:   7823.857 cm^-1
 --------------------------------------------------------------------------
      Term                  X                Y                Z
     + ELECTRIC  X    -0.435424D-03
                 Y     0.106037D-16    -0.458802D-02
                 Z     0.208956D-17    -0.133535D-16     0.133129D-02
        + MIXED  X     0.623580D-03
                 Y     0.682660D-14     0.345642D-02
                 Z     0.166446D-13    -0.146159D-12     0.214341D-02
 + CUBIC    (1)  X    -0.316963D-04
                 Y     0.193686D-18    -0.108713D-03
                 Z     0.329818D-18    -0.691700D-17    -0.589749D-04
 + QUARTIC  (2)  X    -0.536764D-04
                 Y     0.141667D-18    -0.136936D-03
                 Z     0.110567D-17     0.844174D-17     0.127114D-03
 + CORIOLIS (3)  X     0.000000D+00
                 Y     0.000000D+00     0.000000D+00
                 Z     0.000000D+00     0.000000D+00     0.000000D+00
    (1)+(2)+(3)  X    -0.853727D-04
                 Y     0.335353D-18    -0.245649D-03
                 Z     0.143548D-17     0.152474D-17     0.681389D-04
        = TOTAL  X     0.102783D-03
                 Y     0.683754D-14    -0.137724D-02
                 Z     0.166482D-13    -0.146171D-12     0.354283D-02
 --------------------------------------------------------------------------
  COMBINATION:      2(2),     1(1)           - Anh. Freq.:   6878.985 cm^-1
 --------------------------------------------------------------------------
      Term                  X                Y                Z
     + ELECTRIC  X     0.346705D-03
                 Y    -0.124999D-16     0.524190D-02
                 Z    -0.249416D-17     0.158005D-16    -0.176209D-02
        + MIXED  X     0.779664D-03
                 Y     0.104243D-13     0.666218D-02
                 Z     0.266489D-14    -0.149764D-12     0.254935D-02
 + CUBIC    (1)  X    -0.230971D-03
                 Y     0.276614D-17    -0.154378D-02
                 Z     0.290037D-17    -0.121940D-15    -0.657306D-03
 + QUARTIC  (2)  X    -0.175910D-03
                 Y     0.184384D-17    -0.996279D-03
                 Z     0.174418D-17    -0.851631D-16    -0.573561D-03
 + CORIOLIS (3)  X     0.000000D+00
                 Y     0.000000D+00     0.000000D+00
                 Z     0.000000D+00     0.000000D+00     0.000000D+00
    (1)+(2)+(3)  X    -0.406882D-03
                 Y     0.460998D-17    -0.254006D-02
                 Z     0.464456D-17    -0.207103D-15    -0.123087D-02
        = TOTAL  X     0.719488D-03
                 Y     0.104165D-13     0.936402D-02
                 Z     0.266704D-14    -0.149956D-12    -0.443606D-03
 --------------------------------------------------------------------------
  OVERTONE   :      2(3)                     - Anh. Freq.:   5864.285 cm^-1
 --------------------------------------------------------------------------
      Term                  X                Y                Z
     + ELECTRIC  X    -0.615731D-03
                 Y     0.752941D-17    -0.356438D-02
                 Z     0.939955D-18    -0.844478D-17     0.178995D-03
        + MIXED  X    -0.785225D-03
                 Y     0.268391D-14    -0.578537D-02
                 Z     0.144342D-13     0.944164D-13    -0.773221D-02
 + CUBIC    (1)  X     0.449043D-03
                 Y     0.107718D-17    -0.867739D-03
                 Z    -0.117476D-18    -0.509229D-16     0.119623D-02
 + QUARTIC  (2)  X     0.412333D-03
                 Y     0.835294D-18    -0.711596D-03
                 Z    -0.162818D-18    -0.386124D-16     0.112475D-02
 + CORIOLIS (3)   - No Coriolis contributions -
        (1)+(2)  X     0.861377D-03
                 Y     0.191247D-17    -0.157934D-02
                 Z    -0.280294D-18    -0.895353D-16     0.232098D-02
        = TOTAL  X    -0.539579D-03
                 Y     0.269335D-14    -0.109291D-01
                 Z     0.144348D-13     0.943184D-13    -0.523224D-02
 --------------------------------------------------------------------------
  COMBINATION:      1(2),     3(1)           - Anh. Freq.:   7412.250 cm^-1
 --------------------------------------------------------------------------
      Term                  X                Y                Z
     + ELECTRIC  X     0.538737D-03
                 Y     0.232389D-16    -0.856201D-02
                 Z     0.166274D-17    -0.237021D-16     0.194457D-02
        + MIXED  X     0.204174D-03
                 Y     0.161625D-13     0.429733D-02
                 Z    -0.897394D-14    -0.117852D-13    -0.299396D-02
 + CUBIC    (1)  X     0.666890D-05
                 Y     0.836530D-19    -0.382615D-04
                 Z    -0.110073D-18    -0.656044D-17    -0.359310D-04
 + QUARTIC  (2)  X     0.109519D-03
                 Y     0.149500D-18     0.557534D-04
                 Z    -0.231030D-17    -0.439887D-16    -0.401449D-03
 + CORIOLIS (3)  X     0.000000D+00
                 Y     0.000000D+00     0.000000D+00
                 Z     0.000000D+00     0.000000D+00     0.000000D+00
    (1)+(2)+(3)  X     0.116188D-03
                 Y     0.233153D-18     0.174919D-04
                 Z    -0.242038D-17    -0.505492D-16    -0.437380D-03
        = TOTAL  X     0.859099D-03
                 Y     0.161860D-13    -0.424719D-02
                 Z    -0.897469D-14    -0.118594D-13    -0.148677D-02
 --------------------------------------------------------------------------
  COMBINATION:      3(1),     2(1),     1(1) - Anh. Freq.:   6508.833 cm^-1
 --------------------------------------------------------------------------
      Term                  X                Y                Z
     + ELECTRIC  X     0.000000D+00
                 Y     0.000000D+00     0.000000D+00
                 Z     0.000000D+00     0.000000D+00     0.000000D+00
        + MIXED  X    -0.553393D-03
                 Y    -0.613470D-14    -0.697455D-02
                 Z     0.181542D-13     0.584151D-13    -0.221629D-02
 + CUBIC    (1)  X     0.451149D-03
                 Y    -0.627317D-17     0.352205D-02
                 Z    -0.624596D-17     0.279745D-15     0.134690D-02
 + QUARTIC  (2)  X     0.462480D-03
                 Y    -0.725339D-17     0.404214D-02
                 Z    -0.643334D-17     0.334757D-15     0.160516D-02
 + CORIOLIS (3)  X     0.000000D+00
                 Y     0.000000D+00     0.000000D+00
                 Z     0.000000D+00     0.000000D+00     0.000000D+00
    (1)+(2)+(3)  X     0.913629D-03
                 Y    -0.135266D-16     0.756419D-02
                 Z    -0.126793D-16     0.614502D-15     0.295206D-02
        = TOTAL  X     0.360236D-03
                 Y    -0.614822D-14     0.589641D-03
                 Z     0.181415D-13     0.590296D-13     0.735766D-03
 --------------------------------------------------------------------------
  COMBINATION:      2(2),     3(1)           - Anh. Freq.:   5535.590 cm^-1
 --------------------------------------------------------------------------
      Term                  X                Y                Z
     + ELECTRIC  X    -0.798825D-03
                 Y    -0.475815D-17     0.106455D-02
                 Z     0.295298D-17    -0.142880D-17     0.169790D-02
        + MIXED  X     0.753852D-03
                 Y    -0.375036D-15     0.113220D-02
                 Z    -0.333872D-14    -0.150775D-12     0.155930D-02
 + CUBIC    (1)  X     0.246687D-03
                 Y    -0.223557D-18    -0.356325D-04
                 Z    -0.240397D-18     0.171422D-16     0.833293D-03
 + QUARTIC  (2)  X     0.862643D-04
                 Y     0.165551D-17    -0.104796D-02
                 Z     0.135874D-17    -0.720270D-16     0.256708D-03
 + CORIOLIS (3)  X     0.000000D+00
                 Y     0.000000D+00     0.000000D+00
                 Z     0.000000D+00     0.000000D+00     0.000000D+00
    (1)+(2)+(3)  X     0.332952D-03
                 Y     0.143195D-17    -0.108359D-02
                 Z     0.111834D-17    -0.548848D-16     0.109000D-02
        = TOTAL  X     0.287979D-03
                 Y    -0.378362D-15     0.111316D-02
                 Z    -0.333465D-14    -0.150831D-12     0.434721D-02
 --------------------------------------------------------------------------
  COMBINATION:      3(2),     1(1)           - Anh. Freq.:   6134.334 cm^-1
 --------------------------------------------------------------------------
      Term                  X                Y                Z
     + ELECTRIC  X    -0.135067D-02
                 Y    -0.245190D-16     0.825141D-02
                 Z     0.175689D-17     0.183106D-16     0.134764D-03
        + MIXED  X     0.198557D-02
                 Y     0.330792D-13     0.249384D-01
                 Z    -0.324623D-13    -0.296581D-12     0.607713D-02
 + CUBIC    (1)  X    -0.165684D-02
                 Y     0.232936D-16    -0.130864D-01
                 Z     0.231411D-16    -0.103902D-14    -0.495466D-02
 + QUARTIC  (2)  X    -0.879872D-03
                 Y     0.134487D-16    -0.753643D-02
                 Z     0.125588D-16    -0.610839D-15    -0.285244D-02
 + CORIOLIS (3)  X     0.000000D+00
                 Y     0.000000D+00     0.000000D+00
                 Z     0.000000D+00     0.000000D+00     0.000000D+00
    (1)+(2)+(3)  X    -0.253672D-02
                 Y     0.367423D-16    -0.206228D-01
                 Z     0.356999D-16    -0.164986D-14    -0.780709D-02
        = TOTAL  X    -0.190182D-02
                 Y     0.330914D-13     0.125670D-01
                 Z    -0.324248D-13    -0.298212D-12    -0.159520D-02
 --------------------------------------------------------------------------
  COMBINATION:      3(2),     2(1)           - Anh. Freq.:   5202.547 cm^-1
 --------------------------------------------------------------------------
      Term                  X                Y                Z
     + ELECTRIC  X     0.635946D-03
                 Y     0.878079D-17    -0.280276D-02
                 Z    -0.787217D-17     0.725767D-17    -0.601992D-02
        + MIXED  X    -0.113174D-02
                 Y     0.307980D-14    -0.385026D-02
                 Z    -0.389238D-13     0.191138D-12    -0.742941D-02
 + CUBIC    (1)  X     0.230190D-03
                 Y     0.327672D-18    -0.253354D-03
                 Z    -0.875257D-18    -0.265296D-16     0.417981D-03
 + QUARTIC  (2)  X     0.300420D-03
                 Y    -0.316595D-17     0.177244D-02
                 Z    -0.365883D-17     0.135047D-15     0.768147D-03
 + CORIOLIS (3)  X     0.000000D+00
                 Y     0.000000D+00     0.000000D+00
                 Z     0.000000D+00     0.000000D+00     0.000000D+00
    (1)+(2)+(3)  X     0.530610D-03
                 Y    -0.283828D-17     0.151909D-02
                 Z    -0.453409D-17     0.108517D-15     0.118613D-02
        = TOTAL  X     0.348179D-04
                 Y     0.308575D-14    -0.513394D-02
                 Z    -0.389362D-13     0.191254D-12    -0.122632D-01
 --------------------------------------------------------------------------
  OVERTONE   :      3(3)                     - Anh. Freq.:   4865.156 cm^-1
 --------------------------------------------------------------------------
      Term                  X                Y                Z
     + ELECTRIC  X    -0.536852D-03
                 Y     0.116145D-16    -0.508531D-02
                 Z     0.829622D-17    -0.260849D-16     0.647755D-02
        + MIXED  X     0.289334D-03
                 Y    -0.403966D-13    -0.754578D-02
                 Z     0.211707D-13    -0.318646D-13     0.993192D-02
 + CUBIC    (1)  X     0.408622D-05
                 Y    -0.102057D-17     0.479555D-03
                 Z     0.542719D-18     0.693940D-16     0.477023D-03
 + QUARTIC  (2)  X    -0.208346D-03
                 Y     0.248965D-17    -0.141005D-02
                 Z     0.283941D-17    -0.105928D-15    -0.520394D-03
 + CORIOLIS (3)   - No Coriolis contributions -
        (1)+(2)  X    -0.204260D-03
                 Y     0.146908D-17    -0.930499D-03
                 Z     0.338213D-17    -0.365344D-16    -0.433705D-04
        = TOTAL  X    -0.451778D-03
                 Y    -0.403835D-13    -0.135616D-01
                 Z     0.211824D-13    -0.319273D-13     0.163661D-01
 --------------------------------------------------------------------------
  COMBINATION:      1(2),     4(1)           - Anh. Freq.:   7169.777 cm^-1
 --------------------------------------------------------------------------
      Term                  X                Y                Z
     + ELECTRIC  X     0.205638D-17
                 Y    -0.196114D-17    -0.100156D-31
                 Z     0.869329D-03     0.221984D-17    -0.205638D-17
        + MIXED  X    -0.417086D-14
                 Y    -0.342450D-13     0.432528D-12
                 Z     0.315697D-02     0.141982D-12     0.290342D-13
 + CUBIC    (1)  X     0.664549D-18
                 Y     0.143646D-16     0.349882D-17
                 Z     0.492947D-05     0.257997D-18    -0.131986D-17
 + QUARTIC  (2)  X     0.564960D-17
                 Y     0.122119D-15     0.297449D-16
                 Z     0.419074D-04     0.219334D-17    -0.112207D-16
 + CORIOLIS (3)  X    -0.260223D-18
                 Y    -0.562487D-17    -0.137007D-17
                 Z    -0.193028D-05    -0.101026D-18     0.516829D-18
    (1)+(2)+(3)  X     0.605393D-17
                 Y     0.130859D-15     0.318737D-16
                 Z     0.449066D-04     0.235031D-17    -0.120237D-16
        = TOTAL  X    -0.416275D-14
                 Y    -0.341161D-13     0.432560D-12
                 Z     0.407120D-02     0.141986D-12     0.290201D-13
 --------------------------------------------------------------------------
  COMBINATION:      4(1),     2(1),     1(1) - Anh. Freq.:   6238.946 cm^-1
 --------------------------------------------------------------------------
      Term                  X                Y                Z
     + ELECTRIC  X     0.000000D+00
                 Y     0.000000D+00     0.000000D+00
                 Z     0.000000D+00     0.000000D+00     0.000000D+00
        + MIXED  X    -0.309294D-13
                 Y    -0.269051D-13    -0.535368D-13
                 Z     0.101341D-02     0.542242D-14    -0.646556D-13
 + CUBIC    (1)  X     0.561685D-19
                 Y     0.121411D-17     0.295725D-18
                 Z     0.416645D-06     0.218062D-19    -0.111556D-18
 + QUARTIC  (2)  X    -0.744235D-18
                 Y    -0.160870D-16    -0.391837D-17
                 Z    -0.552056D-05    -0.288933D-18     0.147812D-17
 + CORIOLIS (3)  X     0.304909D-18
                 Y     0.659077D-17     0.160533D-17
                 Z     0.226174D-05     0.118374D-18    -0.605579D-18
    (1)+(2)+(3)  X    -0.383157D-18
                 Y    -0.828215D-17    -0.201731D-17
                 Z    -0.284217D-05    -0.148753D-18     0.760988D-18
        = TOTAL  X    -0.309297D-13
                 Y    -0.269134D-13    -0.535389D-13
                 Z     0.101056D-02     0.542227D-14    -0.646548D-13
 --------------------------------------------------------------------------
  COMBINATION:      2(2),     4(1)           - Anh. Freq.:   5238.287 cm^-1
 --------------------------------------------------------------------------
      Term                  X                Y                Z
     + ELECTRIC  X    -0.188655D-17
                 Y     0.179917D-17     0.918843D-32
                 Z    -0.797532D-03    -0.203651D-17     0.188655D-17
        + MIXED  X     0.567115D-13
                 Y     0.739847D-13    -0.201420D-13
                 Z    -0.309566D-02    -0.428744D-13     0.932341D-13
 + CUBIC    (1)  X    -0.462635D-18
                 Y    -0.100001D-16    -0.243576D-17
                 Z    -0.343172D-05    -0.179608D-18     0.918839D-18
 + QUARTIC  (2)  X     0.584678D-18
                 Y     0.126381D-16     0.307831D-17
                 Z     0.433700D-05     0.226989D-18    -0.116123D-17
 + CORIOLIS (3)  X    -0.172663D-18
                 Y    -0.373221D-17    -0.909066D-18
                 Z    -0.128078D-05    -0.670328D-19     0.342926D-18
    (1)+(2)+(3)  X    -0.506206D-19
                 Y    -0.109419D-17    -0.266515D-18
                 Z    -0.375492D-06    -0.196524D-19     0.100537D-18
        = TOTAL  X     0.567095D-13
                 Y     0.739854D-13    -0.201423D-13
                 Z    -0.389356D-02    -0.428764D-13     0.932361D-13
 --------------------------------------------------------------------------
  COMBINATION:      4(1),     3(1),     1(1) - Anh. Freq.:   5862.190 cm^-1
 --------------------------------------------------------------------------
      Term                  X                Y                Z
     + ELECTRIC  X     0.000000D+00
                 Y     0.000000D+00     0.000000D+00
                 Z     0.000000D+00     0.000000D+00     0.000000D+00
        + MIXED  X     0.404479D-13
                 Y     0.133939D-13     0.178846D-13
                 Z    -0.102525D-02    -0.316851D-13     0.103556D-12
 + CUBIC    (1)  X    -0.266259D-18
                 Y    -0.575533D-17    -0.140184D-17
                 Z    -0.197505D-05    -0.103369D-18     0.528816D-18
 + QUARTIC  (2)  X     0.745208D-18
                 Y     0.161081D-16     0.392349D-17
                 Z     0.552778D-05     0.289311D-18    -0.148006D-17
 + CORIOLIS (3)  X    -0.307432D-18
                 Y    -0.664530D-17    -0.161862D-17
                 Z    -0.228046D-05    -0.119354D-18     0.610589D-18
    (1)+(2)+(3)  X     0.171517D-18
                 Y     0.370744D-17     0.903032D-18
                 Z     0.127228D-05     0.665879D-19    -0.340650D-18
        = TOTAL  X     0.404481D-13
                 Y     0.133977D-13     0.178855D-13
                 Z    -0.102398D-02    -0.316850D-13     0.103555D-12
 --------------------------------------------------------------------------
  COMBINATION:      4(1),     3(1),     2(1) - Anh. Freq.:   4902.987 cm^-1
 --------------------------------------------------------------------------
      Term                  X                Y                Z
     + ELECTRIC  X     0.000000D+00
                 Y     0.000000D+00     0.000000D+00
                 Z     0.000000D+00     0.000000D+00     0.000000D+00
        + MIXED  X    -0.116160D-13
                 Y    -0.107636D-13     0.239347D-12
                 Z     0.171203D-02     0.907497D-13    -0.180825D-13
 + CUBIC    (1)  X     0.102049D-17
                 Y     0.220584D-16     0.537284D-17
                 Z     0.756975D-05     0.396183D-18    -0.202679D-17
 + QUARTIC  (2)  X     0.787196D-18
                 Y     0.170157D-16     0.414456D-17
                 Z     0.583924D-05     0.305612D-18    -0.156345D-17
 + CORIOLIS (3)  X     0.233199D-18
                 Y     0.504072D-17     0.122778D-17
                 Z     0.172981D-05     0.905344D-19    -0.463156D-18
    (1)+(2)+(3)  X     0.204088D-17
                 Y     0.441148D-16     0.107452D-16
                 Z     0.151388D-04     0.792330D-18    -0.405340D-17
        = TOTAL  X    -0.116139D-13
                 Y    -0.107195D-13     0.239357D-12
                 Z     0.172717D-02     0.907505D-13    -0.180866D-13
 --------------------------------------------------------------------------
  COMBINATION:      3(2),     4(1)           - Anh. Freq.:   4563.340 cm^-1
 --------------------------------------------------------------------------
      Term                  X                Y                Z
     + ELECTRIC  X    -0.722795D-17
                 Y     0.689318D-17     0.352036D-31
                 Z    -0.305559D-02    -0.780248D-17     0.722795D-17
        + MIXED  X     0.546589D-13
                 Y     0.865249D-13    -0.735339D-12
                 Z    -0.700440D-02    -0.281977D-12     0.603766D-13
 + CUBIC    (1)  X    -0.371478D-17
                 Y    -0.802971D-16    -0.195582D-16
                 Z    -0.275554D-04    -0.144218D-17     0.737792D-17
 + QUARTIC  (2)  X    -0.645162D-18
                 Y    -0.139455D-16    -0.339676D-17
                 Z    -0.478566D-05    -0.250470D-18     0.128136D-17
 + CORIOLIS (3)  X    -0.146367D-18
                 Y    -0.316380D-17    -0.770617D-18
                 Z    -0.108572D-05    -0.568239D-19     0.290699D-18
    (1)+(2)+(3)  X    -0.450631D-17
                 Y    -0.974064D-16    -0.237256D-16
                 Z    -0.334268D-04    -0.174948D-17     0.894998D-17
        = TOTAL  X     0.546471D-13
                 Y     0.864344D-13    -0.735363D-12
                 Z    -0.100934D-01    -0.281986D-12     0.603928D-13
 --------------------------------------------------------------------------
  COMBINATION:      4(2),     1(1)           - Anh. Freq.:   5582.184 cm^-1
 --------------------------------------------------------------------------
      Term                  X                Y                Z
     + ELECTRIC  X     0.370350D-02
                 Y    -0.171054D-16     0.104023D-01
                 Z    -0.127860D-16     0.394996D-16    -0.710701D-02
        + MIXED  X    -0.480134D-03
                 Y    -0.151100D-13    -0.470768D-01
                 Z     0.966964D-13     0.564114D-12    -0.625245D-02
 + CUBIC    (1)  X     0.483498D-02
                 Y    -0.684845D-16     0.384484D-01
                 Z    -0.674682D-16     0.306311D-14     0.146233D-01
 + QUARTIC  (2)  X    -0.216321D-02
                 Y     0.316432D-16    -0.177611D-01
                 Z     0.305829D-16    -0.142292D-14    -0.670171D-02
 + CORIOLIS (3)  X    -0.101639D-04
                 Y     0.445861D-18    -0.241779D-03
                 Z     0.181052D-18    -0.235792D-16    -0.104190D-03
    (1)+(2)+(3)  X     0.266161D-02
                 Y    -0.363954D-16     0.204455D-01
                 Z    -0.367043D-16     0.161662D-14     0.781741D-02
        = TOTAL  X     0.588498D-02
                 Y    -0.151635D-13    -0.162290D-01
                 Z     0.966470D-13     0.565770D-12    -0.554205D-02
 --------------------------------------------------------------------------
  COMBINATION:      4(2),     2(1)           - Anh. Freq.:   4595.566 cm^-1
 --------------------------------------------------------------------------
      Term                  X                Y                Z
     + ELECTRIC  X    -0.254197D-02
                 Y     0.238089D-17    -0.347437D-02
                 Z     0.742224D-17    -0.162604D-16     0.373347D-02
        + MIXED  X     0.127101D-02
                 Y     0.103866D-13     0.765010D-02
                 Z     0.584334D-13    -0.422199D-12     0.569014D-02
 + CUBIC    (1)  X    -0.254238D-03
                 Y     0.139811D-17    -0.800112D-03
                 Z     0.274576D-17    -0.446365D-16    -0.396920D-03
 + QUARTIC  (2)  X     0.164337D-03
                 Y    -0.410676D-17     0.240181D-02
                 Z    -0.412842D-17     0.178230D-15     0.419857D-03
 + CORIOLIS (3)  X     0.120536D-04
                 Y    -0.386468D-18     0.211507D-03
                 Z    -0.203190D-18     0.197680D-16     0.867297D-04
    (1)+(2)+(3)  X    -0.778481D-04
                 Y    -0.309512D-17     0.181320D-02
                 Z    -0.158585D-17     0.153361D-15     0.109666D-03
        = TOTAL  X    -0.134881D-02
                 Y     0.103859D-13     0.598893D-02
                 Z     0.584393D-13    -0.422062D-12     0.953327D-02
 --------------------------------------------------------------------------
  COMBINATION:      4(2),     3(1)           - Anh. Freq.:   4253.662 cm^-1
 --------------------------------------------------------------------------
      Term                  X                Y                Z
     + ELECTRIC  X    -0.149010D-03
                 Y     0.130103D-16    -0.524407D-02
                 Z     0.699563D-17    -0.248373D-16     0.576574D-02
        + MIXED  X     0.226347D-02
                 Y     0.767177D-13     0.159538D-01
                 Z    -0.253128D-13     0.695900D-14    -0.760799D-02
 + CUBIC    (1)  X     0.360593D-03
                 Y    -0.269405D-17     0.159073D-02
                 Z    -0.482779D-17     0.895833D-16     0.468568D-03
 + QUARTIC  (2)  X    -0.443383D-03
                 Y     0.483352D-17    -0.272291D-02
                 Z     0.565288D-17    -0.204563D-15    -0.109909D-02
 + CORIOLIS (3)  X    -0.110898D-04
                 Y     0.314173D-18    -0.172612D-03
                 Z     0.182505D-18    -0.158215D-16    -0.694253D-04
    (1)+(2)+(3)  X    -0.938796D-04
                 Y     0.245364D-17    -0.130479D-02
                 Z     0.100760D-17    -0.130801D-15    -0.699951D-03
        = TOTAL  X     0.202058D-02
                 Y     0.767332D-13     0.940490D-02
                 Z    -0.253048D-13     0.680336D-14    -0.254220D-02
 --------------------------------------------------------------------------
  OVERTONE   :      4(3)                     - Anh. Freq.:   3936.122 cm^-1
 --------------------------------------------------------------------------
      Term                  X                Y                Z
     + ELECTRIC  X    -0.129684D-16
                 Y     0.123678D-16     0.631626D-31
                 Z    -0.548236D-02    -0.139993D-16     0.129684D-16
        + MIXED  X     0.159540D-13
                 Y    -0.229575D-12     0.322298D-11
                 Z     0.219670D-01     0.101710D-11     0.327055D-12
 + CUBIC    (1)  X     0.180385D-16
                 Y     0.389911D-15     0.949719D-16
                 Z     0.133805D-03     0.700305D-17    -0.358262D-16
 + QUARTIC  (2)  X    -0.580245D-17
                 Y    -0.125423D-15    -0.305497D-16
                 Z    -0.430413D-04    -0.225268D-17     0.115242D-16
 + CORIOLIS (3)   - No Coriolis contributions -
        (1)+(2)  X     0.122360D-16
                 Y     0.264488D-15     0.644222D-16
                 Z     0.907639D-04     0.475037D-17    -0.243019D-16
        = TOTAL  X     0.159533D-13
                 Y    -0.229298D-12     0.322304D-11
                 Z     0.165754D-01     0.101709D-11     0.327043D-12
 --------------------------------------------------------------------------
  COMBINATION:      1(2),     5(1)           - Anh. Freq.:   8609.238 cm^-1
 --------------------------------------------------------------------------
      Term                  X                Y                Z
     + ELECTRIC  X     0.357755D-31
                 Y    -0.700515D-17     0.267228D-16
                 Z     0.151240D-16    -0.592281D-02    -0.267228D-16
        + MIXED  X    -0.226087D-12
                 Y     0.124483D-13    -0.370938D-12
                 Z     0.715012D-13     0.250502D-01    -0.501359D-12
 + CUBIC    (1)  X    -0.166821D-15
                 Y     0.124267D-16    -0.278654D-14
                 Z     0.311372D-16    -0.789442D-02    -0.455888D-15
 + QUARTIC  (2)  X    -0.146623D-15
                 Y     0.109304D-16    -0.245204D-14
                 Z     0.274100D-16    -0.694283D-02    -0.400228D-15
 + CORIOLIS (3)  X    -0.229057D-20
                 Y     0.253202D-22     0.126923D-19
                 Z    -0.328293D-21    -0.336091D-07    -0.144486D-19
    (1)+(2)+(3)  X    -0.313446D-15
                 Y     0.233571D-16    -0.523856D-14
                 Z     0.585468D-16    -0.148373D-01    -0.856130D-15
        = TOTAL  X    -0.226400D-12
                 Y     0.124647D-13    -0.376150D-12
                 Z     0.715749D-13     0.429013D-02    -0.502242D-12
 --------------------------------------------------------------------------
  COMBINATION:      5(1),     2(1),     1(1) - Anh. Freq.:   7782.179 cm^-1
 --------------------------------------------------------------------------
      Term                  X                Y                Z
     + ELECTRIC  X     0.000000D+00
                 Y     0.000000D+00     0.000000D+00
                 Z     0.000000D+00     0.000000D+00     0.000000D+00
        + MIXED  X     0.474227D-13
                 Y     0.115042D-13     0.635375D-12
                 Z    -0.214006D-13    -0.733075D-02     0.272919D-12
 + CUBIC    (1)  X     0.197194D-16
                 Y    -0.158299D-17     0.369387D-15
                 Z    -0.427396D-17     0.991883D-03     0.474608D-16
 + QUARTIC  (2)  X     0.104544D-16
                 Y    -0.777171D-18     0.174070D-15
                 Z    -0.194304D-17     0.493912D-03     0.286595D-16
 + CORIOLIS (3)  X     0.439985D-18
                 Y    -0.466262D-20    -0.250848D-17
                 Z     0.641057D-19     0.635235D-05     0.278668D-17
    (1)+(2)+(3)  X     0.306138D-16
                 Y    -0.236482D-17     0.540949D-15
                 Z    -0.615290D-17     0.149215D-02     0.789070D-16
        = TOTAL  X     0.474533D-13
                 Y     0.115019D-13     0.635916D-12
                 Z    -0.214068D-13    -0.583860D-02     0.272998D-12
 --------------------------------------------------------------------------
  COMBINATION:      2(2),     5(1)           - Anh. Freq.:   6885.294 cm^-1
 --------------------------------------------------------------------------
      Term                  X                Y                Z
     + ELECTRIC  X     0.298790D-31
                 Y    -0.585058D-17     0.223184D-16
                 Z     0.126313D-16    -0.494662D-02    -0.223184D-16
        + MIXED  X     0.271042D-13
                 Y     0.114599D-14     0.151388D-12
                 Z    -0.111178D-13    -0.305328D-02     0.817329D-13
 + CUBIC    (1)  X     0.207135D-16
                 Y    -0.157642D-17     0.357721D-15
                 Z    -0.404014D-17     0.997430D-03     0.547208D-16
 + QUARTIC  (2)  X     0.244681D-16
                 Y    -0.180705D-17     0.403237D-15
                 Z    -0.448581D-17     0.114986D-02     0.677455D-16
 + CORIOLIS (3)  X     0.374655D-18
                 Y    -0.426846D-19     0.114395D-16
                 Z    -0.146788D-18     0.253347D-04     0.191141D-18
    (1)+(2)+(3)  X     0.455562D-16
                 Y    -0.342615D-17     0.772397D-15
                 Z    -0.867274D-17     0.217263D-02     0.122657D-15
        = TOTAL  X     0.271498D-13
                 Y     0.113672D-14     0.152182D-12
                 Z    -0.111139D-13    -0.582728D-02     0.818333D-13
 --------------------------------------------------------------------------
  COMBINATION:      5(1),     3(1),     1(1) - Anh. Freq.:   7377.489 cm^-1
 --------------------------------------------------------------------------
      Term                  X                Y                Z
     + ELECTRIC  X     0.000000D+00
                 Y     0.000000D+00     0.000000D+00
                 Z     0.000000D+00     0.000000D+00     0.000000D+00
        + MIXED  X    -0.813128D-13
                 Y    -0.686864D-14    -0.327278D-12
                 Z    -0.107588D-13     0.703591D-02    -0.203942D-12
 + CUBIC    (1)  X    -0.328374D-16
                 Y     0.262049D-17    -0.609660D-15
                 Z     0.703622D-17    -0.164371D-02    -0.799101D-16
 + QUARTIC  (2)  X    -0.237021D-16
                 Y     0.176199D-17    -0.394648D-15
                 Z     0.440523D-17    -0.111979D-02    -0.649763D-16
 + CORIOLIS (3)  X    -0.138360D-17
                 Y     0.145900D-19     0.791365D-17
                 Z    -0.201966D-18    -0.199387D-04    -0.876723D-17
    (1)+(2)+(3)  X    -0.579231D-16
                 Y     0.439707D-17    -0.996395D-15
                 Z     0.112395D-16    -0.278344D-02    -0.153654D-15
        = TOTAL  X    -0.813707D-13
                 Y    -0.686424D-14    -0.328274D-12
                 Z    -0.107475D-13     0.425247D-02    -0.204095D-12
 --------------------------------------------------------------------------
  COMBINATION:      5(1),     3(1),     2(1) - Anh. Freq.:   6522.059 cm^-1
 --------------------------------------------------------------------------
      Term                  X                Y                Z
     + ELECTRIC  X     0.000000D+00
                 Y     0.000000D+00     0.000000D+00
                 Z     0.000000D+00     0.000000D+00     0.000000D+00
        + MIXED  X    -0.292299D-13
                 Y     0.101193D-13     0.191786D-12
                 Z     0.244570D-14     0.113457D-02     0.301113D-13
 + CUBIC    (1)  X    -0.406315D-16
                 Y     0.293942D-17    -0.648098D-15
                 Z     0.712996D-17    -0.187788D-02    -0.115956D-15
 + QUARTIC  (2)  X    -0.695960D-16
                 Y     0.517370D-17    -0.115880D-14
                 Z     0.129350D-16    -0.328802D-02    -0.190789D-15
 + CORIOLIS (3)  X    -0.201258D-17
                 Y     0.176963D-18    -0.431008D-16
                 Z     0.516319D-18    -0.109160D-03    -0.397589D-17
    (1)+(2)+(3)  X    -0.112240D-15
                 Y     0.829008D-17    -0.185000D-14
                 Z     0.205813D-16    -0.527505D-02    -0.310720D-15
        = TOTAL  X    -0.293422D-13
                 Y     0.101275D-13     0.189936D-12
                 Z     0.246628D-14    -0.414049D-02     0.298006D-13
 --------------------------------------------------------------------------
  COMBINATION:      3(2),     5(1)           - Anh. Freq.:   6154.476 cm^-1
 --------------------------------------------------------------------------
      Term                  X                Y                Z
     + ELECTRIC  X     0.411459D-31
                 Y    -0.805673D-17     0.307343D-16
                 Z     0.173943D-16    -0.681190D-02    -0.307343D-16
        + MIXED  X     0.942142D-13
                 Y    -0.950708D-14     0.188581D-12
                 Z    -0.337518D-13    -0.104996D-01     0.214622D-12
 + CUBIC    (1)  X     0.164824D-15
                 Y    -0.122069D-16     0.272828D-14
                 Z    -0.303951D-16     0.776337D-02     0.454432D-15
 + QUARTIC  (2)  X     0.125667D-15
                 Y    -0.922219D-17     0.205041D-14
                 Z    -0.227333D-16     0.587541D-02     0.351249D-15
 + CORIOLIS (3)  X     0.525811D-17
                 Y    -0.363358D-18     0.778978D-16
                 Z    -0.834093D-18     0.234250D-03     0.159656D-16
    (1)+(2)+(3)  X     0.295749D-15
                 Y    -0.217925D-16     0.485659D-14
                 Z    -0.539625D-16     0.138730D-01     0.821646D-15
        = TOTAL  X     0.945100D-13
                 Y    -0.953693D-14     0.193468D-12
                 Z    -0.337883D-13    -0.343845D-02     0.215413D-12
 --------------------------------------------------------------------------
  COMBINATION:      5(1),     4(1),     1(1) - Anh. Freq.:   7122.653 cm^-1
 --------------------------------------------------------------------------
      Term                  X                Y                Z
     + ELECTRIC  X     0.000000D+00
                 Y     0.000000D+00     0.000000D+00
                 Z     0.000000D+00     0.000000D+00     0.000000D+00
        + MIXED  X    -0.643872D-13
                 Y    -0.657717D-02    -0.479441D-12
                 Z    -0.185396D-12    -0.330062D-12    -0.204335D-12
 + CUBIC    (1)  X     0.000000D+00
                 Y     0.000000D+00     0.000000D+00
                 Z     0.000000D+00     0.000000D+00     0.000000D+00
 + QUARTIC  (2)  X     0.000000D+00
                 Y     0.000000D+00     0.000000D+00
                 Z     0.000000D+00     0.000000D+00     0.000000D+00
 + CORIOLIS (3)  X     0.000000D+00
                 Y     0.000000D+00     0.000000D+00
                 Z     0.000000D+00     0.000000D+00     0.000000D+00
    (1)+(2)+(3)  X     0.000000D+00
                 Y     0.000000D+00     0.000000D+00
                 Z     0.000000D+00     0.000000D+00     0.000000D+00
        = TOTAL  X    -0.643872D-13
                 Y    -0.657717D-02    -0.479441D-12
                 Z    -0.185396D-12    -0.330062D-12    -0.204335D-12
 --------------------------------------------------------------------------
  COMBINATION:      5(1),     4(1),     2(1) - Anh. Freq.:   6239.808 cm^-1
 --------------------------------------------------------------------------
      Term                  X                Y                Z
     + ELECTRIC  X     0.000000D+00
                 Y     0.000000D+00     0.000000D+00
                 Z     0.000000D+00     0.000000D+00     0.000000D+00
        + MIXED  X     0.101694D-13
                 Y     0.928123D-03     0.704071D-13
                 Z     0.319752D-13     0.410414D-13     0.306041D-13
 + CUBIC    (1)  X     0.000000D+00
                 Y     0.000000D+00     0.000000D+00
                 Z     0.000000D+00     0.000000D+00     0.000000D+00
 + QUARTIC  (2)  X     0.000000D+00
                 Y     0.000000D+00     0.000000D+00
                 Z     0.000000D+00     0.000000D+00     0.000000D+00
 + CORIOLIS (3)  X     0.000000D+00
                 Y     0.000000D+00     0.000000D+00
                 Z     0.000000D+00     0.000000D+00     0.000000D+00
    (1)+(2)+(3)  X     0.000000D+00
                 Y     0.000000D+00     0.000000D+00
                 Z     0.000000D+00     0.000000D+00     0.000000D+00
        = TOTAL  X     0.101694D-13
                 Y     0.928123D-03     0.704071D-13
                 Z     0.319752D-13     0.410414D-13     0.306041D-13
 --------------------------------------------------------------------------
  COMBINATION:      5(1),     4(1),     3(1) - Anh. Freq.:   5869.969 cm^-1
 --------------------------------------------------------------------------
      Term                  X                Y                Z
     + ELECTRIC  X     0.000000D+00
                 Y     0.000000D+00     0.000000D+00
                 Z     0.000000D+00     0.000000D+00     0.000000D+00
        + MIXED  X    -0.139610D-13
                 Y    -0.124301D-02    -0.951610D-13
                 Z    -0.446547D-13    -0.532220D-13    -0.415447D-13
 + CUBIC    (1)  X     0.000000D+00
                 Y     0.000000D+00     0.000000D+00
                 Z     0.000000D+00     0.000000D+00     0.000000D+00
 + QUARTIC  (2)  X     0.000000D+00
                 Y     0.000000D+00     0.000000D+00
                 Z     0.000000D+00     0.000000D+00     0.000000D+00
 + CORIOLIS (3)  X     0.000000D+00
                 Y     0.000000D+00     0.000000D+00
                 Z     0.000000D+00     0.000000D+00     0.000000D+00
    (1)+(2)+(3)  X     0.000000D+00
                 Y     0.000000D+00     0.000000D+00
                 Z     0.000000D+00     0.000000D+00     0.000000D+00
        = TOTAL  X    -0.139610D-13
                 Y    -0.124301D-02    -0.951610D-13
                 Z    -0.446547D-13    -0.532220D-13    -0.415447D-13
 --------------------------------------------------------------------------
  COMBINATION:      4(2),     5(1)           - Anh. Freq.:   5577.599 cm^-1
 --------------------------------------------------------------------------
      Term                  X                Y                Z
     + ELECTRIC  X     0.295116D-31
                 Y    -0.577864D-17     0.220440D-16
                 Z     0.124759D-16    -0.488580D-02    -0.220440D-16
        + MIXED  X    -0.195771D-12
                 Y     0.130797D-13    -0.268739D-12
                 Z     0.651586D-13     0.216861D-01    -0.421159D-12
 + CUBIC    (1)  X    -0.478849D-15
                 Y     0.356033D-16    -0.797516D-14
                 Z     0.890299D-16    -0.226260D-01    -0.131236D-14
 + QUARTIC  (2)  X     0.254772D-15
                 Y    -0.189672D-16     0.425175D-14
                 Z    -0.474955D-16     0.120508D-01     0.696866D-15
 + CORIOLIS (3)  X     0.452852D-16
                 Y    -0.415571D-17     0.103078D-14
                 Z    -0.125220D-16     0.254569D-02     0.796646D-16
    (1)+(2)+(3)  X    -0.178792D-15
                 Y     0.124804D-16    -0.269263D-14
                 Z     0.290124D-16    -0.802958D-02    -0.535829D-15
        = TOTAL  X    -0.195950D-12
                 Y     0.130864D-13    -0.271410D-12
                 Z     0.652000D-13     0.877071D-02    -0.421717D-12
 --------------------------------------------------------------------------
  COMBINATION:      5(2),     1(1)           - Anh. Freq.:   8627.821 cm^-1
 --------------------------------------------------------------------------
      Term                  X                Y                Z
     + ELECTRIC  X     0.436859D-03
                 Y    -0.477493D-18     0.623854D-03
                 Z     0.642903D-17    -0.118407D-16     0.587256D-02
        + MIXED  X    -0.663730D-02
                 Y    -0.748348D-13    -0.338982D-01
                 Z    -0.519798D-13     0.257123D-12    -0.227922D-01
 + CUBIC    (1)  X     0.159048D-02
                 Y    -0.231009D-16     0.129531D-01
                 Z    -0.222681D-16     0.104014D-14     0.494979D-02
 + QUARTIC  (2)  X     0.144014D-02
                 Y    -0.206947D-16     0.115917D-01
                 Z    -0.199343D-16     0.932535D-15     0.449133D-02
 + CORIOLIS (3)  X    -0.115327D-07
                 Y    -0.338900D-22    -0.347015D-08
                 Z     0.320577D-21     0.699752D-20     0.720134D-07
    (1)+(2)+(3)  X     0.303061D-02
                 Y    -0.437956D-16     0.245448D-01
                 Z    -0.422020D-16     0.197268D-14     0.944119D-02
        = TOTAL  X    -0.316983D-02
                 Y    -0.748790D-13    -0.872953D-02
                 Z    -0.520156D-13     0.259084D-12    -0.747846D-02
 --------------------------------------------------------------------------
  COMBINATION:      5(2),     2(1)           - Anh. Freq.:   7848.748 cm^-1
 --------------------------------------------------------------------------
      Term                  X                Y                Z
     + ELECTRIC  X    -0.188692D-02
                 Y    -0.506410D-17     0.962695D-04
                 Z    -0.628934D-17     0.164700D-16    -0.720451D-02
        + MIXED  X     0.145855D-02
                 Y     0.112514D-13     0.621704D-02
                 Z     0.285875D-13    -0.201910D-12     0.466170D-02
 + CUBIC    (1)  X    -0.205158D-03
                 Y     0.270193D-17    -0.151043D-02
                 Z     0.270214D-17    -0.120641D-15    -0.613521D-03
 + QUARTIC  (2)  X    -0.160810D-03
                 Y     0.985354D-18    -0.617723D-03
                 Z     0.238252D-17    -0.233649D-16    -0.744911D-04
 + CORIOLIS (3)  X     0.319702D-05
                 Y     0.961410D-20     0.756077D-06
                 Z    -0.878656D-19    -0.193593D-17    -0.197068D-04
    (1)+(2)+(3)  X    -0.362771D-03
                 Y     0.369690D-17    -0.212740D-02
                 Z     0.499680D-17    -0.145942D-15    -0.707719D-03
        = TOTAL  X    -0.791136D-03
                 Y     0.112501D-13     0.418591D-02
                 Z     0.285862D-13    -0.202039D-12    -0.325054D-02
 --------------------------------------------------------------------------
  COMBINATION:      5(2),     3(1)           - Anh. Freq.:   7450.974 cm^-1
 --------------------------------------------------------------------------
      Term                  X                Y                Z
     + ELECTRIC  X     0.104339D-02
                 Y     0.408239D-17    -0.555343D-03
                 Z     0.820883D-17    -0.192639D-16     0.798390D-02
        + MIXED  X    -0.123680D-02
                 Y     0.798102D-14    -0.767760D-03
                 Z    -0.306372D-13     0.742636D-13    -0.711407D-02
 + CUBIC    (1)  X     0.345925D-03
                 Y    -0.497174D-17     0.279360D-02
                 Z    -0.488468D-17     0.222430D-15     0.104841D-02
 + QUARTIC  (2)  X     0.324089D-03
                 Y    -0.223590D-17     0.143208D-02
                 Z    -0.542354D-17     0.514062D-16     0.235614D-04
 + CORIOLIS (3)  X    -0.101333D-04
                 Y    -0.307580D-19    -0.213701D-05
                 Z     0.277285D-18     0.613261D-17     0.621581D-04
    (1)+(2)+(3)  X     0.659881D-03
                 Y    -0.723840D-17     0.422354D-02
                 Z    -0.100309D-16     0.279969D-15     0.113413D-02
        = TOTAL  X     0.466467D-03
                 Y     0.797786D-14     0.290044D-02
                 Z    -0.306390D-13     0.745243D-13     0.200396D-02
 --------------------------------------------------------------------------
  COMBINATION:      5(2),     4(1)           - Anh. Freq.:   7183.775 cm^-1
 --------------------------------------------------------------------------
      Term                  X                Y                Z
     + ELECTRIC  X    -0.100425D-16
                 Y     0.957739D-17     0.489120D-31
                 Z    -0.424544D-02    -0.108408D-16     0.100425D-16
        + MIXED  X    -0.144947D-13
                 Y    -0.540649D-13     0.618466D-12
                 Z     0.480831D-02     0.210291D-12     0.218557D-13
 + CUBIC    (1)  X     0.952630D-18
                 Y     0.205916D-16     0.501556D-17
                 Z     0.706639D-05     0.369838D-18    -0.189202D-17
 + QUARTIC  (2)  X     0.641021D-17
                 Y     0.138560D-15     0.337495D-16
                 Z     0.475494D-04     0.248863D-17    -0.127313D-16
 + CORIOLIS (3)  X    -0.506326D-17
                 Y    -0.109445D-15    -0.266579D-16
                 Z    -0.375581D-04    -0.196570D-17     0.100561D-16
    (1)+(2)+(3)  X     0.229958D-17
                 Y     0.497067D-16     0.121072D-16
                 Z     0.170578D-04     0.892763D-18    -0.456719D-17
        = TOTAL  X    -0.145025D-13
                 Y    -0.540056D-13     0.618478D-12
                 Z     0.579929D-03     0.210281D-12     0.218612D-13
 --------------------------------------------------------------------------
  OVERTONE   :      5(3)                     - Anh. Freq.:   8754.649 cm^-1
 --------------------------------------------------------------------------
      Term                  X                Y                Z
     + ELECTRIC  X    -0.769212D-32
                 Y     0.150618D-17    -0.574570D-17
                 Z    -0.325182D-17     0.127347D-02     0.574570D-17
        + MIXED  X    -0.128679D-12
                 Y     0.558727D-14    -0.241538D-12
                 Z     0.395371D-13     0.143759D-01    -0.294094D-12
 + CUBIC    (1)  X    -0.894773D-16
                 Y     0.667746D-17    -0.149888D-14
                 Z     0.167643D-16    -0.424058D-02    -0.243837D-15
 + QUARTIC  (2)  X    -0.892009D-16
                 Y     0.653595D-17    -0.145186D-14
                 Z     0.160838D-16    -0.416526D-02    -0.249895D-15
 + CORIOLIS (3)   - No Coriolis contributions -
        (1)+(2)  X    -0.178678D-15
                 Y     0.132134D-16    -0.295074D-14
                 Z     0.328481D-16    -0.840584D-02    -0.493732D-15
        = TOTAL  X    -0.128858D-12
                 Y     0.560199D-14    -0.244495D-12
                 Z     0.395667D-13     0.724354D-02    -0.294582D-12
 --------------------------------------------------------------------------
  COMBINATION:      1(2),     6(1)           - Anh. Freq.:   7195.032 cm^-1
 --------------------------------------------------------------------------
      Term                  X                Y                Z
     + ELECTRIC  X     0.370053D-31
                 Y    -0.724596D-17     0.276415D-16
                 Z     0.156439D-16    -0.612641D-02    -0.276415D-16
        + MIXED  X     0.442457D-13
                 Y    -0.142294D-13     0.421079D-12
                 Z     0.104056D-13     0.160797D-02     0.126215D-12
 + CUBIC    (1)  X     0.937934D-17
                 Y    -0.559607D-18     0.107903D-15
                 Z    -0.102726D-17     0.372278D-03     0.334693D-16
 + QUARTIC  (2)  X     0.227854D-16
                 Y    -0.563123D-18    -0.171126D-16
                 Z     0.164669D-17     0.494521D-03     0.126186D-15
 + CORIOLIS (3)  X    -0.264569D-17
                 Y     0.279668D-19     0.151084D-16
                 Z    -0.385841D-18    -0.381615D-04    -0.167607D-16
    (1)+(2)+(3)  X     0.295191D-16
                 Y    -0.109476D-17     0.105899D-15
                 Z     0.233581D-18     0.828638D-03     0.142895D-15
        = TOTAL  X     0.442753D-13
                 Y    -0.142377D-13     0.421213D-12
                 Z     0.104215D-13    -0.368981D-02     0.126330D-12
 --------------------------------------------------------------------------
  COMBINATION:      6(1),     2(1),     1(1) - Anh. Freq.:   6275.457 cm^-1
 --------------------------------------------------------------------------
      Term                  X                Y                Z
     + ELECTRIC  X     0.000000D+00
                 Y     0.000000D+00     0.000000D+00
                 Z     0.000000D+00     0.000000D+00     0.000000D+00
        + MIXED  X    -0.233045D-12
                 Y     0.142431D-13    -0.328929D-12
                 Z     0.694397D-13     0.243673D-01    -0.470873D-12
 + CUBIC    (1)  X    -0.381998D-15
                 Y     0.284619D-16    -0.638306D-14
                 Z     0.713335D-16    -0.180805D-01    -0.104356D-14
 + QUARTIC  (2)  X    -0.163926D-17
                 Y     0.248710D-19     0.671610D-17
                 Z    -0.199830D-18    -0.275269D-04    -0.995974D-17
 + CORIOLIS (3)  X    -0.929532D-18
                 Y     0.139435D-18    -0.401407D-16
                 Z     0.538614D-18    -0.801151D-04     0.141558D-17
    (1)+(2)+(3)  X    -0.384567D-15
                 Y     0.286262D-16    -0.641648D-14
                 Z     0.716723D-16    -0.181881D-01    -0.105211D-14
        = TOTAL  X    -0.233430D-12
                 Y     0.142717D-13    -0.335345D-12
                 Z     0.695114D-13     0.617916D-02    -0.471925D-12
 --------------------------------------------------------------------------
  COMBINATION:      2(2),     6(1)           - Anh. Freq.:   5286.054 cm^-1
 --------------------------------------------------------------------------
      Term                  X                Y                Z
     + ELECTRIC  X     0.168777D-31
                 Y    -0.330479D-17     0.126069D-16
                 Z     0.713497D-17    -0.279418D-02    -0.126069D-16
        + MIXED  X     0.124657D-12
                 Y     0.380127D-13     0.144421D-11
                 Z    -0.592021D-13    -0.184755D-01     0.600475D-12
 + CUBIC    (1)  X     0.364884D-16
                 Y    -0.375796D-17     0.974143D-15
                 Z    -0.122197D-16     0.226194D-02     0.411113D-16
 + QUARTIC  (2)  X     0.246389D-17
                 Y    -0.159191D-18     0.326187D-16
                 Z    -0.333242D-18     0.104067D-03     0.810539D-17
 + CORIOLIS (3)  X     0.535313D-18
                 Y    -0.538249D-19     0.138330D-16
                 Z    -0.172472D-18     0.325116D-04     0.676808D-18
    (1)+(2)+(3)  X     0.394876D-16
                 Y    -0.397098D-17     0.102059D-14
                 Z    -0.127254D-16     0.239852D-02     0.498935D-16
        = TOTAL  X     0.124697D-12
                 Y     0.380055D-13     0.144525D-11
                 Z    -0.592077D-13    -0.188712D-01     0.600512D-12
 --------------------------------------------------------------------------
  COMBINATION:      6(1),     3(1),     1(1) - Anh. Freq.:   5893.221 cm^-1
 --------------------------------------------------------------------------
      Term                  X                Y                Z
     + ELECTRIC  X     0.000000D+00
                 Y     0.000000D+00     0.000000D+00
                 Z     0.000000D+00     0.000000D+00     0.000000D+00
        + MIXED  X     0.181096D-13
                 Y    -0.829055D-14     0.117812D-12
                 Z     0.108047D-13     0.946041D-03     0.217772D-13
 + CUBIC    (1)  X    -0.262389D-16
                 Y     0.203133D-17    -0.465204D-15
                 Z     0.529676D-17    -0.128120D-02    -0.673800D-16
 + QUARTIC  (2)  X    -0.602556D-17
                 Y     0.914207D-19     0.246870D-16
                 Z    -0.734534D-18    -0.101183D-03    -0.366099D-16
 + CORIOLIS (3)  X     0.547459D-17
                 Y    -0.372618D-18     0.791063D-16
                 Z    -0.838787D-18     0.240960D-03     0.169441D-16
    (1)+(2)+(3)  X    -0.267899D-16
                 Y     0.175013D-17    -0.361411D-15
                 Z     0.372344D-17    -0.114142D-02    -0.870458D-16
        = TOTAL  X     0.180828D-13
                 Y    -0.828880D-14     0.117450D-12
                 Z     0.108084D-13    -0.195383D-03     0.216901D-13
 --------------------------------------------------------------------------
  COMBINATION:      6(1),     3(1),     2(1) - Anh. Freq.:   4945.274 cm^-1
 --------------------------------------------------------------------------
      Term                  X                Y                Z
     + ELECTRIC  X     0.000000D+00
                 Y     0.000000D+00     0.000000D+00
                 Z     0.000000D+00     0.000000D+00     0.000000D+00
        + MIXED  X    -0.641796D-13
                 Y    -0.297845D-13    -0.313882D-12
                 Z    -0.325612D-13     0.112126D-01    -0.246172D-12
 + CUBIC    (1)  X    -0.588613D-16
                 Y     0.553928D-17    -0.138809D-14
                 Z     0.169924D-16    -0.337974D-02    -0.957861D-16
 + QUARTIC  (2)  X     0.565844D-17
                 Y    -0.858506D-19    -0.231828D-16
                 Z     0.689780D-18     0.950181D-04     0.343793D-16
 + CORIOLIS (3)  X    -0.134298D-17
                 Y     0.907639D-19    -0.191800D-16
                 Z     0.202417D-18    -0.587791D-04    -0.419285D-17
    (1)+(2)+(3)  X    -0.545459D-16
                 Y     0.554419D-17    -0.143045D-14
                 Z     0.178846D-16    -0.334350D-02    -0.655996D-16
        = TOTAL  X    -0.642341D-13
                 Y    -0.297790D-13    -0.315312D-12
                 Z    -0.325433D-13     0.786910D-02    -0.246237D-12
 --------------------------------------------------------------------------
  COMBINATION:      3(2),     6(1)           - Anh. Freq.:   4600.147 cm^-1
 --------------------------------------------------------------------------
      Term                  X                Y                Z
     + ELECTRIC  X     0.411483D-31
                 Y    -0.805720D-17     0.307361D-16
                 Z     0.173953D-16    -0.681230D-02    -0.307361D-16
        + MIXED  X    -0.721499D-13
                 Y     0.244112D-13    -0.801939D-12
                 Z    -0.273334D-13    -0.261818D-02    -0.242264D-12
 + CUBIC    (1)  X    -0.200337D-16
                 Y     0.863866D-18    -0.114259D-15
                 Z     0.470253D-18    -0.624588D-03    -0.901661D-16
 + QUARTIC  (2)  X     0.168465D-16
                 Y    -0.182610D-17     0.481691D-15
                 Z    -0.611546D-17     0.109120D-02     0.138485D-16
 + CORIOLIS (3)  X    -0.742381D-18
                 Y     0.525124D-19    -0.114228D-16
                 Z     0.124061D-18    -0.336963D-04    -0.218592D-17
    (1)+(2)+(3)  X    -0.392964D-17
                 Y    -0.909720D-18     0.356009D-15
                 Z    -0.552115D-17     0.432914D-03    -0.785035D-16
        = TOTAL  X    -0.721538D-13
                 Y     0.244023D-13    -0.801552D-12
                 Z    -0.273215D-13    -0.899757D-02    -0.242373D-12
 --------------------------------------------------------------------------
  COMBINATION:      6(1),     4(1),     1(1) - Anh. Freq.:   5626.265 cm^-1
 --------------------------------------------------------------------------
      Term                  X                Y                Z
     + ELECTRIC  X     0.000000D+00
                 Y     0.000000D+00     0.000000D+00
                 Z     0.000000D+00     0.000000D+00     0.000000D+00
        + MIXED  X    -0.806904D-14
                 Y    -0.219305D-03    -0.310264D-13
                 Z    -0.379543D-13     0.192434D-13    -0.164863D-13
 + CUBIC    (1)  X     0.000000D+00
                 Y     0.000000D+00     0.000000D+00
                 Z     0.000000D+00     0.000000D+00     0.000000D+00
 + QUARTIC  (2)  X     0.000000D+00
                 Y     0.000000D+00     0.000000D+00
                 Z     0.000000D+00     0.000000D+00     0.000000D+00
 + CORIOLIS (3)  X     0.000000D+00
                 Y     0.000000D+00     0.000000D+00
                 Z     0.000000D+00     0.000000D+00     0.000000D+00
    (1)+(2)+(3)  X     0.000000D+00
                 Y     0.000000D+00     0.000000D+00
                 Z     0.000000D+00     0.000000D+00     0.000000D+00
        = TOTAL  X    -0.806904D-14
                 Y    -0.219305D-03    -0.310264D-13
                 Z    -0.379543D-13     0.192434D-13    -0.164863D-13
 --------------------------------------------------------------------------
  COMBINATION:      6(1),     4(1),     2(1) - Anh. Freq.:   4650.903 cm^-1
 --------------------------------------------------------------------------
      Term                  X                Y                Z
     + ELECTRIC  X     0.000000D+00
                 Y     0.000000D+00     0.000000D+00
                 Z     0.000000D+00     0.000000D+00     0.000000D+00
        + MIXED  X    -0.148406D-12
                 Y    -0.152613D-01    -0.110994D-11
                 Z    -0.424847D-12    -0.770936D-12    -0.472502D-12
 + CUBIC    (1)  X     0.000000D+00
                 Y     0.000000D+00     0.000000D+00
                 Z     0.000000D+00     0.000000D+00     0.000000D+00
 + QUARTIC  (2)  X     0.000000D+00
                 Y     0.000000D+00     0.000000D+00
                 Z     0.000000D+00     0.000000D+00     0.000000D+00
 + CORIOLIS (3)  X     0.000000D+00
                 Y     0.000000D+00     0.000000D+00
                 Z     0.000000D+00     0.000000D+00     0.000000D+00
    (1)+(2)+(3)  X     0.000000D+00
                 Y     0.000000D+00     0.000000D+00
                 Z     0.000000D+00     0.000000D+00     0.000000D+00
        = TOTAL  X    -0.148406D-12
                 Y    -0.152613D-01    -0.110994D-11
                 Z    -0.424847D-12    -0.770936D-12    -0.472502D-12
 --------------------------------------------------------------------------
  COMBINATION:      6(1),     4(1),     3(1) - Anh. Freq.:   4303.519 cm^-1
 --------------------------------------------------------------------------
      Term                  X                Y                Z
     + ELECTRIC  X     0.000000D+00
                 Y     0.000000D+00     0.000000D+00
                 Z     0.000000D+00     0.000000D+00     0.000000D+00
        + MIXED  X    -0.509798D-14
                 Y    -0.669411D-03    -0.451008D-13
                 Z    -0.110619D-13    -0.410259D-13    -0.184199D-13
 + CUBIC    (1)  X     0.000000D+00
                 Y     0.000000D+00     0.000000D+00
                 Z     0.000000D+00     0.000000D+00     0.000000D+00
 + QUARTIC  (2)  X     0.000000D+00
                 Y     0.000000D+00     0.000000D+00
                 Z     0.000000D+00     0.000000D+00     0.000000D+00
 + CORIOLIS (3)  X     0.000000D+00
                 Y     0.000000D+00     0.000000D+00
                 Z     0.000000D+00     0.000000D+00     0.000000D+00
    (1)+(2)+(3)  X     0.000000D+00
                 Y     0.000000D+00     0.000000D+00
                 Z     0.000000D+00     0.000000D+00     0.000000D+00
        = TOTAL  X    -0.509798D-14
                 Y    -0.669411D-03    -0.451008D-13
                 Z    -0.110619D-13    -0.410259D-13    -0.184199D-13
 --------------------------------------------------------------------------
  COMBINATION:      4(2),     6(1)           - Anh. Freq.:   3999.029 cm^-1
 --------------------------------------------------------------------------
      Term                  X                Y                Z
     + ELECTRIC  X     0.271322D-31
                 Y    -0.531272D-17     0.202666D-16
                 Z     0.114700D-16    -0.449186D-02    -0.202666D-16
        + MIXED  X     0.160065D-12
                 Y    -0.559713D-13     0.153399D-11
                 Z     0.466704D-13     0.762314D-02     0.429559D-12
 + CUBIC    (1)  X     0.357816D-16
                 Y    -0.662760D-18    -0.104563D-15
                 Z     0.373834D-17     0.662553D-03     0.210645D-15
 + QUARTIC  (2)  X    -0.183263D-16
                 Y     0.819387D-18    -0.114742D-15
                 Z     0.581788D-18    -0.586357D-03    -0.808388D-16
 + CORIOLIS (3)  X    -0.298691D-17
                 Y     0.245598D-18    -0.579927D-16
                 Z     0.677661D-18    -0.153237D-03    -0.686082D-17
    (1)+(2)+(3)  X     0.144684D-16
                 Y     0.402225D-18    -0.277298D-15
                 Z     0.499779D-17    -0.770410D-04     0.122945D-15
        = TOTAL  X     0.160079D-12
                 Y    -0.559762D-13     0.153374D-11
                 Z     0.466869D-13     0.305423D-02     0.429662D-12
 --------------------------------------------------------------------------
  COMBINATION:      6(1),     5(1),     1(1) - Anh. Freq.:   7129.766 cm^-1
 --------------------------------------------------------------------------
      Term                  X                Y                Z
     + ELECTRIC  X     0.000000D+00
                 Y     0.000000D+00     0.000000D+00
                 Z     0.000000D+00     0.000000D+00     0.000000D+00
        + MIXED  X     0.111603D-02
                 Y    -0.908013D-14     0.102477D-01
                 Z     0.216951D-13    -0.488429D-12    -0.554541D-02
 + CUBIC    (1)  X    -0.385813D-04
                 Y     0.134436D-17    -0.730184D-03
                 Z     0.620051D-18    -0.701105D-16    -0.317798D-03
 + QUARTIC  (2)  X    -0.513793D-04
                 Y     0.723932D-18    -0.406440D-03
                 Z     0.715403D-18    -0.323511D-16    -0.154801D-03
 + CORIOLIS (3)  X    -0.976330D-05
                 Y    -0.293901D-19    -0.205932D-05
                 Z     0.265767D-18     0.587090D-17     0.593757D-04
    (1)+(2)+(3)  X    -0.997239D-04
                 Y     0.203890D-17    -0.113868D-02
                 Z     0.160122D-17    -0.965906D-16    -0.413224D-03
        = TOTAL  X     0.101630D-02
                 Y    -0.907809D-14     0.910899D-02
                 Z     0.216967D-13    -0.488525D-12    -0.595864D-02
 --------------------------------------------------------------------------
  COMBINATION:      6(1),     5(1),     2(1) - Anh. Freq.:   6258.177 cm^-1
 --------------------------------------------------------------------------
      Term                  X                Y                Z
     + ELECTRIC  X     0.000000D+00
                 Y     0.000000D+00     0.000000D+00
                 Z     0.000000D+00     0.000000D+00     0.000000D+00
        + MIXED  X    -0.820249D-02
                 Y    -0.676986D-13    -0.256898D-01
                 Z    -0.106191D-12     0.137088D-12    -0.281020D-01
 + CUBIC    (1)  X     0.364222D-02
                 Y    -0.528950D-16     0.296197D-01
                 Z    -0.505603D-16     0.238884D-14     0.114712D-01
 + QUARTIC  (2)  X    -0.109068D-04
                 Y    -0.270533D-20     0.614861D-05
                 Z     0.324132D-19     0.349405D-18    -0.263334D-04
 + CORIOLIS (3)  X     0.933305D-05
                 Y    -0.154663D-18     0.936666D-04
                 Z    -0.214965D-18     0.581700D-17     0.768230D-05
    (1)+(2)+(3)  X     0.364065D-02
                 Y    -0.530524D-16     0.297196D-01
                 Z    -0.507428D-16     0.239500D-14     0.114526D-01
        = TOTAL  X    -0.456184D-02
                 Y    -0.677516D-13     0.402979D-02
                 Z    -0.106242D-12     0.139483D-12    -0.166495D-01
 --------------------------------------------------------------------------
  COMBINATION:      6(1),     5(1),     3(1) - Anh. Freq.:   5882.858 cm^-1
 --------------------------------------------------------------------------
      Term                  X                Y                Z
     + ELECTRIC  X     0.000000D+00
                 Y     0.000000D+00     0.000000D+00
                 Z     0.000000D+00     0.000000D+00     0.000000D+00
        + MIXED  X     0.861073D-03
                 Y    -0.835954D-14     0.575038D-02
                 Z     0.148635D-14    -0.156410D-12    -0.163129D-02
 + CUBIC    (1)  X     0.296086D-03
                 Y    -0.376437D-17     0.212123D-02
                 Z    -0.402875D-17     0.163984D-15     0.805980D-03
 + QUARTIC  (2)  X    -0.141964D-04
                 Y     0.912405D-20     0.484701D-04
                 Z    -0.473100D-18    -0.892759D-17    -0.201705D-03
 + CORIOLIS (3)  X    -0.243637D-04
                 Y     0.546116D-18    -0.315188D-03
                 Z     0.522371D-18    -0.242286D-16    -0.729072D-04
    (1)+(2)+(3)  X     0.257526D-03
                 Y    -0.320913D-17     0.185451D-02
                 Z    -0.397948D-17     0.130828D-15     0.531368D-03
        = TOTAL  X     0.111860D-02
                 Y    -0.836275D-14     0.760489D-02
                 Z     0.148237D-14    -0.156279D-12    -0.109993D-02
 --------------------------------------------------------------------------
  COMBINATION:      6(1),     5(1),     4(1) - Anh. Freq.:   5603.538 cm^-1
 --------------------------------------------------------------------------
      Term                  X                Y                Z
     + ELECTRIC  X     0.000000D+00
                 Y     0.000000D+00     0.000000D+00
                 Z     0.000000D+00     0.000000D+00     0.000000D+00
        + MIXED  X     0.356270D-13
                 Y     0.184209D-13     0.488780D-13
                 Z    -0.906703D-03    -0.145111D-13     0.858100D-13
 + CUBIC    (1)  X    -0.145951D-18
                 Y    -0.315481D-17    -0.768425D-18
                 Z    -0.108263D-05    -0.566622D-19     0.289873D-18
 + QUARTIC  (2)  X    -0.151506D-18
                 Y    -0.327489D-17    -0.797675D-18
                 Z    -0.112384D-05    -0.588190D-19     0.300906D-18
 + CORIOLIS (3)  X     0.233747D-17
                 Y     0.505257D-16     0.123067D-16
                 Z     0.173388D-04     0.907472D-18    -0.464244D-17
    (1)+(2)+(3)  X     0.204001D-17
                 Y     0.440960D-16     0.107406D-16
                 Z     0.151323D-04     0.791991D-18    -0.405166D-17
        = TOTAL  X     0.356291D-13
                 Y     0.184650D-13     0.488887D-13
                 Z    -0.891571D-03    -0.145104D-13     0.858059D-13
 --------------------------------------------------------------------------
  COMBINATION:      5(2),     6(1)           - Anh. Freq.:   7172.746 cm^-1
 --------------------------------------------------------------------------
      Term                  X                Y                Z
     + ELECTRIC  X    -0.216350D-31
                 Y     0.423631D-17    -0.161604D-16
                 Z    -0.914611D-17     0.358177D-02     0.161604D-16
        + MIXED  X     0.650881D-13
                 Y    -0.132318D-13     0.683391D-12
                 Z     0.137878D-13     0.668582D-03     0.221795D-12
 + CUBIC    (1)  X     0.123677D-16
                 Y    -0.808642D-18     0.167088D-15
                 Z    -0.172252D-17     0.527297D-03     0.401461D-16
 + QUARTIC  (2)  X    -0.263723D-18
                 Y     0.116121D-17    -0.404705D-15
                 Z     0.598716D-17    -0.600020D-03     0.636128D-16
 + CORIOLIS (3)  X     0.000000D+00
                 Y     0.000000D+00     0.000000D+00
                 Z     0.000000D+00     0.000000D+00     0.000000D+00
    (1)+(2)+(3)  X     0.121039D-16
                 Y     0.352565D-18    -0.237617D-15
                 Z     0.426463D-17    -0.727233D-04     0.103759D-15
        = TOTAL  X     0.651002D-13
                 Y    -0.132272D-13     0.683137D-12
                 Z     0.137829D-13     0.417763D-02     0.221915D-12
 --------------------------------------------------------------------------
  COMBINATION:      6(2),     1(1)           - Anh. Freq.:   5642.397 cm^-1
 --------------------------------------------------------------------------
      Term                  X                Y                Z
     + ELECTRIC  X    -0.667816D-03
                 Y    -0.280642D-16     0.103226D-01
                 Z     0.556134D-17     0.141861D-16     0.403426D-02
        + MIXED  X    -0.215680D-02
                 Y    -0.570770D-13    -0.407023D-01
                 Z     0.687154D-13     0.565693D-12    -0.689243D-02
 + CUBIC    (1)  X     0.404820D-02
                 Y    -0.573017D-16     0.321919D-01
                 Z    -0.567098D-16     0.255870D-14     0.121626D-01
 + QUARTIC  (2)  X    -0.165325D-02
                 Y     0.242444D-16    -0.137118D-01
                 Z     0.245341D-16    -0.107160D-14    -0.477004D-02
 + CORIOLIS (3)  X    -0.528333D-04
                 Y     0.112543D-17    -0.651187D-03
                 Z     0.111483D-17    -0.493727D-16    -0.147063D-03
    (1)+(2)+(3)  X     0.234211D-02
                 Y    -0.319319D-16     0.178289D-01
                 Z    -0.310609D-16     0.143772D-14     0.724553D-02
        = TOTAL  X    -0.482500D-03
                 Y    -0.571370D-13    -0.125507D-01
                 Z     0.686899D-13     0.567145D-12     0.438735D-02
 --------------------------------------------------------------------------
  COMBINATION:      6(2),     2(1)           - Anh. Freq.:   4678.291 cm^-1
 --------------------------------------------------------------------------
      Term                  X                Y                Z
     + ELECTRIC  X     0.128472D-02
                 Y     0.881928D-17    -0.216906D-02
                 Z    -0.976619D-17     0.108363D-16    -0.697253D-02
        + MIXED  X     0.433060D-02
                 Y    -0.152826D-13     0.370992D-01
                 Z     0.927711D-13    -0.184530D-11    -0.167887D-01
 + CUBIC    (1)  X     0.298143D-03
                 Y     0.287764D-17    -0.146474D-02
                 Z    -0.269103D-17    -0.205089D-15    -0.651981D-03
 + QUARTIC  (2)  X     0.103826D-03
                 Y    -0.199790D-17     0.120797D-02
                 Z    -0.262569D-17     0.771348D-16     0.899049D-04
 + CORIOLIS (3)  X     0.171293D-04
                 Y    -0.334137D-18     0.192230D-03
                 Z    -0.330045D-18     0.147211D-16     0.489129D-04
    (1)+(2)+(3)  X     0.419098D-03
                 Y     0.545600D-18    -0.645378D-04
                 Z    -0.564677D-17    -0.113233D-15    -0.513163D-03
        = TOTAL  X     0.603441D-02
                 Y    -0.152733D-13     0.348656D-01
                 Z     0.927557D-13    -0.184541D-11    -0.242744D-01
 --------------------------------------------------------------------------
  COMBINATION:      6(2),     3(1)           - Anh. Freq.:   4325.427 cm^-1
 --------------------------------------------------------------------------
      Term                  X                Y                Z
     + ELECTRIC  X    -0.347723D-02
                 Y     0.284513D-16    -0.146192D-01
                 Z     0.156199D-16    -0.549285D-16     0.972928D-02
        + MIXED  X    -0.900359D-03
                 Y     0.402577D-13     0.686854D-02
                 Z    -0.339951D-13    -0.157451D-12    -0.136496D-01
 + CUBIC    (1)  X    -0.422201D-04
                 Y     0.410502D-17    -0.225525D-02
                 Z     0.158974D-17    -0.216722D-15    -0.807667D-03
 + QUARTIC  (2)  X     0.484580D-03
                 Y    -0.876062D-17     0.480171D-02
                 Z    -0.631823D-17     0.426257D-15     0.214651D-02
 + CORIOLIS (3)  X     0.658402D-05
                 Y    -0.123532D-18     0.708803D-04
                 Z    -0.121904D-18     0.545255D-17     0.189817D-04
    (1)+(2)+(3)  X     0.448944D-03
                 Y    -0.477913D-17     0.261735D-02
                 Z    -0.485040D-17     0.214987D-15     0.135783D-02
        = TOTAL  X    -0.392865D-02
                 Y     0.402814D-13    -0.513335D-02
                 Z    -0.339843D-13    -0.157291D-12    -0.256247D-02
 --------------------------------------------------------------------------
  COMBINATION:      6(2),     4(1)           - Anh. Freq.:   4033.987 cm^-1
 --------------------------------------------------------------------------
      Term                  X                Y                Z
     + ELECTRIC  X    -0.875088D-17
                 Y     0.834558D-17     0.426211D-31
                 Z    -0.369940D-02    -0.944647D-17     0.875088D-17
        + MIXED  X    -0.387163D-13
                 Y    -0.119750D-12     0.151680D-11
                 Z     0.115202D-01     0.522994D-12     0.326894D-13
 + CUBIC    (1)  X     0.903370D-17
                 Y     0.195268D-15     0.475621D-16
                 Z     0.670099D-04     0.350714D-17    -0.179418D-16
 + QUARTIC  (2)  X    -0.208076D-17
                 Y    -0.449769D-16    -0.109552D-16
                 Z    -0.154346D-04    -0.807812D-18     0.413260D-17
 + CORIOLIS (3)  X    -0.937379D-19
                 Y    -0.202620D-17    -0.493526D-18
                 Z    -0.695326D-06    -0.363917D-19     0.186173D-18
    (1)+(2)+(3)  X     0.685919D-17
                 Y     0.148265D-15     0.361134D-16
                 Z     0.508799D-04     0.266294D-17    -0.136230D-16
        = TOTAL  X    -0.387182D-13
                 Y    -0.119593D-12     0.151683D-11
                 Z     0.787163D-02     0.522987D-12     0.326846D-13
 --------------------------------------------------------------------------
  COMBINATION:      6(2),     5(1)           - Anh. Freq.:   5601.528 cm^-1
 --------------------------------------------------------------------------
      Term                  X                Y                Z
     + ELECTRIC  X     0.120120D-31
                 Y    -0.235206D-17     0.897249D-17
                 Z     0.507804D-17    -0.198865D-02    -0.897249D-17
        + MIXED  X    -0.159789D-12
                 Y     0.191468D-14    -0.348965D-12
                 Z     0.544157D-13     0.193540D-01    -0.416878D-12
 + CUBIC    (1)  X    -0.418498D-15
                 Y     0.312322D-16    -0.701074D-14
                 Z     0.784131D-16    -0.198342D-01    -0.114042D-14
 + QUARTIC  (2)  X     0.169563D-15
                 Y    -0.128792D-16     0.291941D-14
                 Z    -0.329405D-16     0.815196D-02     0.449387D-15
 + CORIOLIS (3)  X     0.000000D+00
                 Y     0.000000D+00     0.000000D+00
                 Z     0.000000D+00     0.000000D+00     0.000000D+00
    (1)+(2)+(3)  X    -0.248935D-15
                 Y     0.183529D-16    -0.409133D-14
                 Z     0.454726D-16    -0.116822D-01    -0.691029D-15
        = TOTAL  X    -0.160038D-12
                 Y     0.193068D-14    -0.353048D-12
                 Z     0.544662D-13     0.568310D-02    -0.417578D-12
 --------------------------------------------------------------------------
  OVERTONE   :      6(3)                     - Anh. Freq.:   4040.996 cm^-1
 --------------------------------------------------------------------------
      Term                  X                Y                Z
     + ELECTRIC  X     0.201868D-31
                 Y    -0.395275D-17     0.150787D-16
                 Z     0.853391D-17    -0.334203D-02    -0.150787D-16
        + MIXED  X     0.204695D-12
                 Y    -0.704029D-13     0.224850D-11
                 Z     0.596522D-13     0.133679D-01     0.611291D-12
 + CUBIC    (1)  X     0.104300D-15
                 Y    -0.507136D-17     0.796095D-15
                 Z    -0.543333D-17     0.354711D-02     0.437084D-15
 + QUARTIC  (2)  X    -0.661008D-16
                 Y     0.392315D-17    -0.753200D-15
                 Z     0.713211D-17    -0.261299D-02    -0.237040D-15
 + CORIOLIS (3)   - No Coriolis contributions -
        (1)+(2)  X     0.381995D-16
                 Y    -0.114821D-17     0.428952D-16
                 Z     0.169878D-17     0.934125D-03     0.200045D-15
        = TOTAL  X     0.204733D-12
                 Y    -0.704080D-13     0.224856D-11
                 Z     0.596625D-13     0.109600D-01     0.611476D-12
 -----------------------------------------------------------------------

     ==================================================
              Anharmonic Infrared Spectroscopy
     ==================================================

 Units: Transition energies (E) in cm^-1
        Integrated intensity (I) in km.mol^-1

 Fundamental Bands
 -----------------
   Mode(n)                              E(harm)   E(anharm)        I(harm)       I(anharm)
      1(1)                              3084.542   2954.078     64.91539973     65.41362420
      2(1)                              1996.530   1971.318    157.40816061    164.60806422
      3(1)                              1652.153   1620.165     18.33484444     17.05445163
      4(1)                              1338.080   1320.714      2.74087940      2.91586479
      5(1)                              3152.994   3045.508    104.67602829     72.26167223
      6(1)                              1372.192   1351.970     21.65845048     23.03561309

 Overtones
 ---------
   Mode(n)                              E(harm)   E(anharm)                      I(anharm)
      1(2)                              6169.085   5853.712                      0.01776645
      1(3)                              9253.627   8698.902                      0.00327061
      2(2)                              3993.060   3926.080                      4.13859846
      2(3)                              5989.590   5864.285                      0.12169488
      3(2)                              3304.306   3241.884                      2.84744976
      3(3)                              4956.459   4865.156                      0.00311023
      4(2)                              2676.160   2629.675                      0.00719894
      4(3)                              4014.240   3936.122                      0.00382304
      5(2)                              6305.987   5899.722                      0.94457819
      5(3)                              9458.981   8754.649                      0.07147511
      6(2)                              2744.383   2702.049                      0.60214660
      6(3)                              4116.575   4040.996                      0.01730726

 Combination Bands
 -----------------
   Mode(n)                              E(harm)   E(anharm)                      I(anharm)
      2(1)        1(1)                  5081.072   4924.809                      2.12639092
      2(2)        1(1)                  7077.602   6878.985                      0.02728457
      2(1)        1(2)                  8165.615   7823.857                      0.01116617
      3(1)        1(1)                  4736.695   4543.430                      0.00315777
      3(2)        1(1)                  6388.848   6134.334                      0.00097147
      3(1)        1(2)                  7821.238   7412.250                      0.00009722
      3(1)        2(1)                  3648.683   3586.156                      0.27819759
      3(2)        2(1)                  5300.836   5202.547                      0.03644575
      3(1)        2(2)                  5645.213   5535.590                      0.00367179
      3(1)        2(1)        1(1)      6733.225   6508.833                      0.00158143
      4(1)        1(1)                  4422.622   4272.468                      0.00258406
      4(2)        1(1)                  5760.702   5582.184                      0.01064160
      4(1)        1(2)                  7507.165   7169.777                      0.00082793
      4(1)        2(1)                  3334.610   3287.779                      0.44599143
      4(2)        2(1)                  4672.690   4595.566                      0.10529586
      4(1)        2(2)                  5331.140   5238.287                      0.00775890
      4(1)        2(1)        1(1)      6419.152   6238.946                      0.00040469
      4(1)        3(1)                  2990.233   2941.250                      0.03229026
      4(2)        3(1)                  4328.313   4253.662                      0.00314593
      4(1)        3(2)                  4642.386   4563.340                      0.00022408
      4(1)        3(1)        1(1)      6074.775   5862.190                      0.00011346
      4(1)        3(1)        2(1)      4986.763   4902.987                      0.00001232
      5(1)        1(1)                  6237.536   5822.594                      0.48856505
      5(2)        1(1)                  9390.529   8627.821                      0.07029341
      5(1)        1(2)                  9322.078   8609.238                      0.04488135
      5(1)        2(1)                  5149.524   4941.678                      5.21689526
      5(2)        2(1)                  8302.517   7848.748                      0.00987440
      5(1)        2(2)                  7146.054   6885.294                      0.05901111
      5(1)        2(1)        1(1)      8234.066   7782.179                      0.10941490
      5(1)        3(1)                  4805.146   4567.215                      1.00899294
      5(2)        3(1)                  7958.140   7450.974                      0.03509556
      5(1)        3(2)                  6457.299   6154.476                      0.00253092
      5(1)        3(1)        1(1)      7889.689   7377.489                      0.03063749
      5(1)        3(1)        2(1)      6801.676   6522.059                      0.01720880
      5(1)        4(1)                  4491.073   4283.889                      0.00000000
      5(2)        4(1)                  7644.067   7183.775                      0.00275878
      5(1)        4(2)                  5829.153   5577.599                      0.02380871
      5(1)        4(1)        1(1)      7575.616   7122.653                      0.00000000
      5(1)        4(1)        2(1)      6487.603   6239.808                      0.00000000
      5(1)        4(1)        3(1)      6143.226   5869.969                      0.00000000
      6(1)        1(1)                  4456.734   4300.724                      0.44944150
      6(2)        1(1)                  5828.925   5642.397                      0.00426245
      6(1)        1(2)                  7541.276   7195.032                      0.00042338
      6(1)        2(1)                  3368.722   3327.290                      4.52715498
      6(2)        2(1)                  4740.913   4678.291                      0.17039711
      6(1)        2(2)                  5365.252   5286.054                      0.56706813
      6(1)        2(1)        1(1)      6453.264   6275.457                      0.03751107
      6(1)        3(1)                  3024.344   2911.280                     44.62335272
      6(2)        3(1)                  4396.536   4325.427                      0.03488682
      6(1)        3(2)                  4676.497   4600.147                      0.00496853
      6(1)        3(1)        1(1)      6108.887   5893.221                      0.00074612
      6(1)        3(1)        2(1)      5020.874   4945.274                      0.03855278
      6(1)        4(1)                  2710.271   2679.836                      0.00000000
      6(2)        4(1)                  4082.463   4033.987                      0.00067707
      6(1)        4(2)                  4048.351   3999.029                      0.01509930
      6(1)        4(1)        1(1)      5794.814   5626.265                      0.00000000
      6(1)        4(1)        2(1)      4706.801   4650.903                      0.00000000
      6(1)        4(1)        3(1)      4362.424   4303.519                      0.00000000
      6(1)        5(1)                  4525.185   4294.003                      0.19246559
      6(2)        5(1)                  5897.377   5601.528                      0.00561715
      6(1)        5(2)                  7678.179   7172.746                      0.01612045
      6(1)        5(1)        1(1)      7609.727   7129.766                      0.00864204
      6(1)        5(1)        2(1)      6521.715   6258.177                      0.13883623
      6(1)        5(1)        3(1)      6177.338   5882.858                      0.00194518
      6(1)        5(1)        4(1)      5863.265   5603.538                      0.00027138

 Units: Transition energies (E) in cm^-1
        Dipole strengths (DS) in 10^-40 esu^2.cm^2

 Fundamental Bands
 -----------------
   Mode(n)                              E(harm)   E(anharm)       DS(harm)      DS(anharm)
      1(1)                              3084.542   2954.078     83.95844845     88.33923474
      2(1)                              1996.530   1971.318    314.52762966    333.12085651
      3(1)                              1652.153   1620.165     44.27253515     41.99385932
      4(1)                              1338.080   1320.714      8.17175415      8.80777129
      5(1)                              3152.994   3045.508    132.44377759     94.65764539
      6(1)                              1372.192   1351.970     62.96802184     67.97355423

 Overtones
 ---------
   Mode(n)                              E(harm)   E(anharm)                     DS(anharm)
      1(2)                              6169.085   5853.712                      0.01210812
      1(3)                              9253.627   8698.902                      0.00149993
      2(2)                              3993.060   3926.080                      4.20534441
      2(3)                              5989.590   5864.285                      0.08278747
      3(2)                              3304.306   3241.884                      3.50401532
      3(3)                              4956.459   4865.156                      0.00255037
      4(2)                              2676.160   2629.675                      0.01092129
      4(3)                              4014.240   3936.122                      0.00387479
      5(2)                              6305.987   5899.722                      0.63872477
      5(3)                              9458.981   8754.649                      0.03257043
      6(2)                              2744.383   2702.049                      0.88903004
      6(3)                              4116.575   4040.996                      0.01708628

 Combination Bands
 -----------------
   Mode(n)                              E(harm)   E(anharm)                     DS(anharm)
      2(1)        1(1)                  5081.072   4924.809                      1.72250733
      2(2)        1(1)                  7077.602   6878.985                      0.01582341
      2(1)        1(2)                  8165.615   7823.857                      0.00569365
      3(1)        1(1)                  4736.695   4543.430                      0.00277271
      3(2)        1(1)                  6388.848   6134.334                      0.00063178
      3(1)        1(2)                  7821.238   7412.250                      0.00005233
      3(1)        2(1)                  3648.683   3586.156                      0.30947929
      3(2)        2(1)                  5300.836   5202.547                      0.02794720
      3(1)        2(2)                  5645.213   5535.590                      0.00264619
      3(1)        2(1)        1(1)      6733.225   6508.833                      0.00096929
      4(1)        1(1)                  4422.622   4272.468                      0.00241286
      4(2)        1(1)                  5760.702   5582.184                      0.00760519
      4(1)        1(2)                  7507.165   7169.777                      0.00046068
      4(1)        2(1)                  3334.610   3287.779                      0.54116706
      4(2)        2(1)                  4672.690   4595.566                      0.09140705
      4(1)        2(2)                  5331.140   5238.287                      0.00590906
      4(1)        2(1)        1(1)      6419.152   6238.946                      0.00025877
      4(1)        3(1)                  2990.233   2941.250                      0.04379726
      4(2)        3(1)                  4328.313   4253.662                      0.00295049
      4(1)        3(2)                  4642.386   4563.340                      0.00019590
      4(1)        3(1)        1(1)      6074.775   5862.190                      0.00007721
      4(1)        3(1)        2(1)      4986.763   4902.987                      0.00001002
      5(1)        1(1)                  6237.536   5822.594                      0.33474437
      5(2)        1(1)                  9390.529   8627.821                      0.03250281
      5(1)        1(2)                  9322.078   8609.238                      0.02079738
      5(1)        2(1)                  5149.524   4941.678                      4.21158039
      5(2)        2(1)                  8302.517   7848.748                      0.00501901
      5(1)        2(2)                  7146.054   6885.294                      0.03419154
      5(1)        2(1)        1(1)      8234.066   7782.179                      0.05608963
      5(1)        3(1)                  4805.146   4567.215                      0.88134129
      5(2)        3(1)                  7958.140   7450.974                      0.01879085
      5(1)        3(2)                  6457.299   6154.476                      0.00164057
      5(1)        3(1)        1(1)      7889.689   7377.489                      0.01656731
      5(1)        3(1)        2(1)      6801.676   6522.059                      0.01052624
      5(1)        4(1)                  4491.073   4283.889                      0.00000000
      5(2)        4(1)                  7644.067   7183.775                      0.00153205
      5(1)        4(2)                  5829.153   5577.599                      0.01702927
      5(1)        4(1)        1(1)      7575.616   7122.653                      0.00000000
      5(1)        4(1)        2(1)      6487.603   6239.808                      0.00000000
      5(1)        4(1)        3(1)      6143.226   5869.969                      0.00000000
      6(1)        1(1)                  4456.734   4300.724                      0.41690687
      6(2)        1(1)                  5828.925   5642.397                      0.00301372
      6(1)        1(2)                  7541.276   7195.032                      0.00023475
      6(1)        2(1)                  3368.722   3327.290                      5.42802798
      6(2)        2(1)                  4740.913   4678.291                      0.14530563
      6(1)        2(2)                  5365.252   5286.054                      0.42796776
      6(1)        2(1)        1(1)      6453.264   6275.457                      0.02384633
      6(1)        3(1)                  3024.344   2911.280                     61.14846973
      6(2)        3(1)                  4396.536   4325.427                      0.03217657
      6(1)        3(2)                  4676.497   4600.147                      0.00430888
      6(1)        3(1)        1(1)      6108.887   5893.221                      0.00050508
      6(1)        3(1)        2(1)      5020.874   4945.274                      0.03110088
      6(1)        4(1)                  2710.271   2679.836                      0.00000000
      6(2)        4(1)                  4082.463   4033.987                      0.00066959
      6(1)        4(2)                  4048.351   3999.029                      0.01506293
      6(1)        4(1)        1(1)      5794.814   5626.265                      0.00000000
      6(1)        4(1)        2(1)      4706.801   4650.903                      0.00000000
      6(1)        4(1)        3(1)      4362.424   4303.519                      0.00000000
      6(1)        5(1)                  4525.185   4294.003                      0.17881261
      6(2)        5(1)                  5897.377   5601.528                      0.00400053
      6(1)        5(2)                  7678.179   7172.746                      0.00896601
      6(1)        5(1)        1(1)      7609.727   7129.766                      0.00483558
      6(1)        5(1)        2(1)      6521.715   6258.177                      0.08850390
      6(1)        5(1)        3(1)      6177.338   5882.858                      0.00131910
      6(1)        5(1)        4(1)      5863.265   5603.538                      0.00019321

     ==================================================
           Anharmonic Raman Spectroscopy (Static)
     ==================================================

 NOTE: The Raman activity is calculated here with respect to the
       dimensionless normal coordinates, while mass-weighted normal
       coordinates are used in the harmonic analysis.
       The conversion factor between the former and latter expression of
       the Raman activity calculated at harmonic level is:
       0.059320322*Wi
       where Wi is the harmonic wavenumber of mode i (in cm^-1)

 Units: Transition energies (E) in cm^-1
        Raman activity (RA) in Ang^6

 Fundamental Bands
 -----------------
   Mode(n)                              E(harm)   E(anharm)       RA(harm)      RA(anharm)
      1(1)                              3084.542   2954.078      0.81308032      0.93582798
      2(1)                              1996.530   1971.318      0.09797611      0.09937764
      3(1)                              1652.153   1620.165      0.08674759      0.09755887
      4(1)                              1338.080   1320.714      0.00017233      0.00078156
      5(1)                              3152.994   3045.508      0.35949247      0.22409359
      6(1)                              1372.192   1351.970      0.01553250      0.01881466

 Overtones
 ---------
   Mode(n)                              E(harm)   E(anharm)                     RA(anharm)
      1(2)                              6169.085   5853.712                      0.00122736
      1(3)                              9253.627   8698.902                      0.00000565
      2(2)                              3993.060   3926.080                      0.00203112
      2(3)                              5989.590   5864.285                      0.00004311
      3(2)                              3304.306   3241.884                      0.02164275
      3(3)                              4956.459   4865.156                      0.00010439
      4(2)                              2676.160   2629.675                      0.01351989
      4(3)                              4014.240   3936.122                      0.00012669
      5(2)                              6305.987   5899.722                      0.00086309
      5(3)                              9458.981   8754.649                      0.00002420
      6(2)                              2744.383   2702.049                      0.00444718
      6(3)                              4116.575   4040.996                      0.00005539

 Combination Bands
 -----------------
   Mode(n)                              E(harm)   E(anharm)                     RA(anharm)
      2(1)        1(1)                  5081.072   4924.809                      0.00094580
      2(2)        1(1)                  7077.602   6878.985                      0.00002344
      2(1)        1(2)                  8165.615   7823.857                      0.00000350
      3(1)        1(1)                  4736.695   4543.430                      0.00147760
      3(2)        1(1)                  6388.848   6134.334                      0.00004054
      3(1)        1(2)                  7821.238   7412.250                      0.00000562
      3(1)        2(1)                  3648.683   3586.156                      0.00368775
      3(2)        2(1)                  5300.836   5202.547                      0.00005068
      3(1)        2(2)                  5645.213   5535.590                      0.00000575
      3(1)        2(1)        1(1)      6733.225   6508.833                      0.00000033
      4(1)        1(1)                  4422.622   4272.468                      0.00199589
      4(2)        1(1)                  5760.702   5582.184                      0.00008411
      4(1)        1(2)                  7507.165   7169.777                      0.00000764
      4(1)        2(1)                  3334.610   3287.779                      0.00091562
      4(2)        2(1)                  4672.690   4595.566                      0.00003626
      4(1)        2(2)                  5331.140   5238.287                      0.00000699
      4(1)        2(1)        1(1)      6419.152   6238.946                      0.00000047
      4(1)        3(1)                  2990.233   2941.250                      0.00010862
      4(2)        3(1)                  4328.313   4253.662                      0.00002542
      4(1)        3(2)                  4642.386   4563.340                      0.00004698
      4(1)        3(1)        1(1)      6074.775   5862.190                      0.00000048
      4(1)        3(1)        2(1)      4986.763   4902.987                      0.00000138
      5(1)        1(1)                  6237.536   5822.594                      0.00015603
      5(2)        1(1)                  9390.529   8627.821                      0.00004515
      5(1)        1(2)                  9322.078   8609.238                      0.00000849
      5(1)        2(1)                  5149.524   4941.678                      0.00105313
      5(2)        2(1)                  8302.517   7848.748                      0.00000662
      5(1)        2(2)                  7146.054   6885.294                      0.00001566
      5(1)        2(1)        1(1)      8234.066   7782.179                      0.00001572
      5(1)        3(1)                  4805.146   4567.215                      0.00044961
      5(2)        3(1)                  7958.140   7450.974                      0.00000387
      5(1)        3(2)                  6457.299   6154.476                      0.00000545
      5(1)        3(1)        1(1)      7889.689   7377.489                      0.00000834
      5(1)        3(1)        2(1)      6801.676   6522.059                      0.00000791
      5(1)        4(1)                  4491.073   4283.889                      0.00242212
      5(2)        4(1)                  7644.067   7183.775                      0.00000016
      5(1)        4(2)                  5829.153   5577.599                      0.00003547
      5(1)        4(1)        1(1)      7575.616   7122.653                      0.00001995
      5(1)        4(1)        2(1)      6487.603   6239.808                      0.00000040
      5(1)        4(1)        3(1)      6143.226   5869.969                      0.00000071
      6(1)        1(1)                  4456.734   4300.724                      0.00096797
      6(2)        1(1)                  5828.925   5642.397                      0.00004327
      6(1)        1(2)                  7541.276   7195.032                      0.00000628
      6(1)        2(1)                  3368.722   3327.290                      0.01813619
      6(2)        2(1)                  4740.913   4678.291                      0.00043364
      6(1)        2(2)                  5365.252   5286.054                      0.00016422
      6(1)        2(1)        1(1)      6453.264   6275.457                      0.00001761
      6(1)        3(1)                  3024.344   2911.280                      0.18368923
      6(2)        3(1)                  4396.536   4325.427                      0.00001560
      6(1)        3(2)                  4676.497   4600.147                      0.00003733
      6(1)        3(1)        1(1)      6108.887   5893.221                      0.00000002
      6(1)        3(1)        2(1)      5020.874   4945.274                      0.00002855
      6(1)        4(1)                  2710.271   2679.836                      0.00013152
      6(2)        4(1)                  4082.463   4033.987                      0.00002857
      6(1)        4(2)                  4048.351   3999.029                      0.00000430
      6(1)        4(1)        1(1)      5794.814   5626.265                      0.00000002
      6(1)        4(1)        2(1)      4706.801   4650.903                      0.00010740
      6(1)        4(1)        3(1)      4362.424   4303.519                      0.00000021
      6(1)        5(1)                  4525.185   4294.003                      0.00347281
      6(2)        5(1)                  5897.377   5601.528                      0.00001489
      6(1)        5(2)                  7678.179   7172.746                      0.00000805
      6(1)        5(1)        1(1)      7609.727   7129.766                      0.00002813
      6(1)        5(1)        2(1)      6521.715   6258.177                      0.00008218
      6(1)        5(1)        3(1)      6177.338   5882.858                      0.00001582
      6(1)        5(1)        4(1)      5863.265   5603.538                      0.00000037
 Write normal modes, IRwNMS=   797 IRotNM=-1 NVibU=    83.

 Leave Link  717 at Tue Jul  9 11:15:33 2024, MaxMem=    97648640 cpu:              18.3 elap:               1.3
 (Enter /cluster/software/Gaussian/g16_B.01/l103.exe)

 GradGradGradGradGradGradGradGradGradGradGradGradGradGradGradGradGradGrad
 Berny optimization.
 Red2BG is reusing G-inverse.
 Internal  Forces:  Max     0.000000161 RMS     0.000000069
 Search for a local minimum.
 Step number   1 out of a maximum of    2
 All quantities printed in internal units (Hartrees-Bohrs-Radians)
 Second derivative matrix not updated -- analytic derivatives used.
 The second derivative matrix:
                          R1        R2        R3        A1        A2
           R1           1.06175
           R2           0.04053   0.34539
           R3           0.04053   0.00563   0.34539
           A1           0.02134   0.00447  -0.01338   0.13118
           A2           0.02134  -0.01338   0.00447  -0.08327   0.13118
           A3          -0.04268   0.00891   0.00891  -0.04791  -0.04791
           D1          -0.00000   0.00000   0.00000  -0.00000  -0.00000
                          A3        D1
           A3           0.09581
           D1           0.00000   0.08370
 ITU=  0
     Eigenvalues ---    0.08370   0.13908   0.21195   0.34226   0.34827
     Eigenvalues ---    1.06915
 Angle between quadratic step and forces=  90.00 degrees.
 Linear search not attempted -- first point.
 Iteration  1 RMS(Cart)=  0.00000022 RMS(Int)=  0.00000000
 ITry= 1 IFail=0 DXMaxC= 2.78D-07 DCOld= 1.00D+10 DXMaxT= 3.00D-01 DXLimC= 3.00D+00 Rises=F
 ClnCor:  largest displacement from symmetrization is 2.91D-15 for atom     2.
 Variable       Old X    -DE/DX   Delta X   Delta X   Delta X     New X
                                 (Linear)    (Quad)   (Total)
    R1        2.22316  -0.00000   0.00000  -0.00000  -0.00000   2.22316
    R2        2.06461   0.00000   0.00000   0.00000   0.00000   2.06461
    R3        2.06461   0.00000   0.00000   0.00000   0.00000   2.06461
    A1        2.12920  -0.00000   0.00000  -0.00000  -0.00000   2.12920
    A2        2.12920  -0.00000   0.00000  -0.00000  -0.00000   2.12920
    A3        2.02478   0.00000   0.00000   0.00000   0.00000   2.02478
    D1        3.14159   0.00000   0.00000   0.00000   0.00000   3.14159
         Item               Value     Threshold  Converged?
 Maximum Force            0.000000     0.000450     YES
 RMS     Force            0.000000     0.000300     YES
 Maximum Displacement     0.000000     0.001800     YES
 RMS     Displacement     0.000000     0.001200     YES
 Predicted change in Energy=-3.339144D-14
 Optimization completed.
    -- Stationary point found.
                           ----------------------------
                           !   Optimized Parameters   !
                           ! (Angstroms and Degrees)  !
 --------------------------                            --------------------------
 ! Name  Definition              Value          Derivative Info.                !
 --------------------------------------------------------------------------------
 ! R1    R(1,2)                  1.1764         -DE/DX =    0.0                 !
 ! R2    R(2,3)                  1.0925         -DE/DX =    0.0                 !
 ! R3    R(2,4)                  1.0925         -DE/DX =    0.0                 !
 ! A1    A(1,2,3)              121.9942         -DE/DX =    0.0                 !
 ! A2    A(1,2,4)              121.9942         -DE/DX =    0.0                 !
 ! A3    A(3,2,4)              116.0116         -DE/DX =    0.0                 !
 ! D1    D(1,2,4,3)            180.0            -DE/DX =    0.0                 !
 --------------------------------------------------------------------------------
 GradGradGradGradGradGradGradGradGradGradGradGradGradGradGradGradGradGrad

 Leave Link  103 at Tue Jul  9 11:15:33 2024, MaxMem=    97648640 cpu:               0.8 elap:               0.1
 (Enter /cluster/software/Gaussian/g16_B.01/l9999.exe)

 ----------------------------------------------------------------------

 Electric dipole moment (input orientation):
 (Debye = 10**-18 statcoulomb cm , SI units = C m)
                  (au)            (Debye)         (10**-30 SI)
   Tot        0.105521D+01      0.268208D+01      0.894645D+01
   x          0.000000D+00      0.000000D+00      0.000000D+00
   y          0.000000D+00      0.000000D+00      0.000000D+00
   z          0.105521D+01      0.268208D+01      0.894645D+01

 Dipole polarizability, Alpha (input orientation).
 (esu units = cm**3 , SI units = C**2 m**2 J**-1)
 Alpha(0;0):
               (au)            (10**-24 esu)      (10**-40 SI)
   iso        0.152704D+02      0.226284D+01      0.251775D+01
   aniso      0.786441D+01      0.116538D+01      0.129667D+01
   xx         0.151718D+02      0.224823D+01      0.250149D+01
   yx         0.000000D+00      0.000000D+00      0.000000D+00
   yy         0.107800D+02      0.159742D+01      0.177737D+01
   zx         0.000000D+00      0.000000D+00      0.000000D+00
   zy         0.000000D+00      0.000000D+00      0.000000D+00
   zz         0.198594D+02      0.294286D+01      0.327437D+01

 First dipole hyperpolarizability, Beta (input orientation).
 ||, _|_  parallel and perpendicular components, (z) with respect to z axis,
 vector components x,y,z.  Values do not include the 1/n! factor of 1/2.
 (esu units = statvolt**-1 cm**4 , SI units = C**3 m**3 J**-2)
 Beta(0;0,0):
               (au)            (10**-30 esu)      (10**-50 SI)
   || (z)     0.549210D+02      0.474474D+00      0.176096D+00
   _|_(z)     0.183070D+02      0.158158D+00      0.586988D-01
   x          0.000000D+00      0.000000D+00      0.000000D+00
   y          0.000000D+00      0.000000D+00      0.000000D+00
   z          0.274605D+03      0.237237D+01      0.880482D+00
   ||         0.549210D+02      0.474474D+00      0.176096D+00
   xxx        0.000000D+00      0.000000D+00      0.000000D+00
   xxy        0.000000D+00      0.000000D+00      0.000000D+00
   yxy        0.000000D+00      0.000000D+00      0.000000D+00
   yyy        0.000000D+00      0.000000D+00      0.000000D+00
   xxz        0.439259D+02      0.379486D+00      0.140842D+00
   yxz        0.000000D+00      0.000000D+00      0.000000D+00
   yyz        0.785506D+01      0.678616D-01      0.251862D-01
   zxz        0.000000D+00      0.000000D+00      0.000000D+00
   zyz        0.000000D+00      0.000000D+00      0.000000D+00
   zzz        0.397540D+02      0.343443D+00      0.127466D+00

 ----------------------------------------------------------------------

 Dipole orientation:
     8          0.00000000         -0.00000000          0.01550518
     6          0.00000000         -0.00000000          2.23866958
     1          1.75099547          0.00000000          3.33256707
     1         -1.75099547         -0.00000000          3.33256707

 Electric dipole moment (dipole orientation):
 (Debye = 10**-18 statcoulomb cm , SI units = C m)
                  (au)            (Debye)         (10**-30 SI)
   Tot        0.105521D+01      0.268208D+01      0.894645D+01
   x          0.000000D+00      0.000000D+00      0.000000D+00
   y          0.000000D+00      0.000000D+00      0.000000D+00
   z          0.105521D+01      0.268208D+01      0.894645D+01

 Dipole polarizability, Alpha (dipole orientation).
 (esu units = cm**3 , SI units = C**2 m**2 J**-1)
 Alpha(0;0):
               (au)            (10**-24 esu)      (10**-40 SI)
   iso        0.152704D+02      0.226284D+01      0.251775D+01
   aniso      0.786441D+01      0.116538D+01      0.129667D+01
   xx         0.151718D+02      0.224823D+01      0.250149D+01
   yx         0.000000D+00      0.000000D+00      0.000000D+00
   yy         0.107800D+02      0.159742D+01      0.177737D+01
   zx         0.000000D+00      0.000000D+00      0.000000D+00
   zy         0.000000D+00      0.000000D+00      0.000000D+00
   zz         0.198594D+02      0.294286D+01      0.327437D+01

 First dipole hyperpolarizability, Beta (dipole orientation).
 ||, _|_  parallel and perpendicular components, (z) with respect to z axis,
 vector components x,y,z.  Values do not include the 1/n! factor of 1/2.
 (esu units = statvolt**-1 cm**4 , SI units = C**3 m**3 J**-2)
 Beta(0;0,0):
               (au)            (10**-30 esu)      (10**-50 SI)
   || (z)     0.549210D+02      0.474474D+00      0.176096D+00
   _|_(z)     0.183070D+02      0.158158D+00      0.586988D-01
   x          0.000000D+00      0.000000D+00      0.000000D+00
   y          0.000000D+00      0.000000D+00      0.000000D+00
   z          0.274605D+03      0.237237D+01      0.880482D+00
   ||         0.549210D+02      0.474474D+00      0.176096D+00
   xxx        0.000000D+00      0.000000D+00      0.000000D+00
   xxy        0.000000D+00      0.000000D+00      0.000000D+00
   yxy        0.000000D+00      0.000000D+00      0.000000D+00
   yyy        0.000000D+00      0.000000D+00      0.000000D+00
   xxz        0.439259D+02      0.379486D+00      0.140842D+00
   yxz        0.000000D+00      0.000000D+00      0.000000D+00
   yyz        0.785506D+01      0.678616D-01      0.251862D-01
   zxz        0.000000D+00      0.000000D+00      0.000000D+00
   zyz        0.000000D+00      0.000000D+00      0.000000D+00
   zzz        0.397540D+02      0.343443D+00      0.127466D+00

 ----------------------------------------------------------------------

 Test job not archived.
 1\1\GINC-C64-2\Freq\RHF\CC-pVQZ\C1H2O1\VLE014\09-Jul-2024\0\\#P HF/cc-
 pVQZ Freq=(Anharmonic,raman,hpmodes,ReadAnharm) Int=UltraFine SCF=Very
 Tight iop(7/33=1) IOp(10/96=2) Guess=Read Geom=AllCheck\\Title\\0,1\O,
 0.,0.,0.0082049854\C,0.,0.,1.1846529243\H,0.9265868985,0.,1.7635185451
 \H,-0.9265868985,0.,1.7635185451\\Version=ES64L-G16RevB.01\State=1-A1\
 HF=-113.9223825\RMSD=1.878e-09\RMSF=5.814e-08\ZeroPoint=0.0286969\Ther
 mal=0.0315506\Dipole=0.,0.,1.0552109\DipoleDeriv=-0.5365033,0.,0.,0.,-
 0.3914011,0.,0.,0.,-1.1549314,0.8823654,0.,0.,0.,0.2222244,0.,0.,0.,1.
 2214687,-0.172931,0.,-0.1364309,0.,0.0845883,0.,-0.0687647,0.,-0.03326
 87,-0.172931,0.,0.1364309,0.,0.0845883,0.,0.0687647,0.,-0.0332687\Pola
 r=15.1718078,0.,10.7799563,0.,0.,19.8593851\PolarDeriv=0.,0.,0.,-2.595
 4337,0.,0.,0.,0.,0.,0.,-3.5829721,0.,2.7358291,0.,-3.4519751,0.,0.,-11
 .224461,0.,0.,0.,-4.7067236,0.,0.,0.,0.,0.,0.,2.5646961,0.,-9.6582095,
 0.,2.3907609,0.,0.,5.1721056,6.7592334,0.,0.9795129,3.6510786,0.,2.025
 9868,0.,1.2541014,0.,0.,0.509138,0.,3.4611902,0.,0.5306071,2.5900436,0
 .,3.0261777,-6.7592334,0.,-0.9795129,3.6510786,0.,-2.0259868,0.,-1.254
 1014,0.,0.,0.509138,0.,3.4611902,0.,0.5306071,-2.5900436,0.,3.0261777\
 HyperPolar=0.,0.,0.,0.,43.9259043,0.,7.855057,0.,0.,39.7539671\Quadrup
 ole=0.2126253,0.0753314,-0.2879567,0.,0.,0.\PG=C02V [C2(C1O1),SGV(H2)]
 \NImag=0\\0.08677816,0.,0.02354373,0.,0.,1.06175355,-0.12266347,0.,0.,
 0.66001880,0.,-0.07139244,0.,0.,0.21648575,0.,0.,-0.96619870,0.,0.,1.1
 8996151,0.01794265,0.,-0.01794667,-0.26867767,0.,-0.08865765,0.2716242
 3,0.,0.02392435,0.,0.,-0.07254665,0.,0.,0.02431115,-0.04387995,0.,-0.0
 4777742,-0.08998041,0.,-0.11188140,0.12023234,0.,0.14949887,0.01794265
 ,0.,0.01794667,-0.26867767,0.,0.08865765,-0.02088921,0.,0.01362802,0.2
 7162423,0.,0.02392435,0.,0.,-0.07254665,0.,0.,0.02431115,0.,0.,0.02431
 115,0.04387995,0.,-0.04777742,0.08998041,0.,-0.11188140,-0.01362802,0.
 ,0.01015995,-0.12023234,0.,0.14949887\\0.,0.,-0.00000016,0.,0.,0.00000
 010,-0.00000004,0.,0.00000003,0.00000004,0.,0.00000003\\0.,0.,0.,0.,-0
 .03598917,0.,0.,0.,0.,0.,0.,0.,0.03023409,0.,0.,0.,0.05136643,0.,0.,0.
 04965242,0.,0.,-0.00521400,0.,0.,-0.05356061,0.,0.,0.00081481,0.,0.002
 87754,-0.08595758,0.,-0.05050942,0.07195869,0.,0.,-0.00768863,0.,0.,-0
 .03994325,0.,0.,0.04989370,0.,0.,0.00521400,0.,0.,0.05356061,0.,0.,0.0
 1318408,0.,0.,-0.00081481,0.,0.00287754,0.08595758,0.,-0.05050942,-0.0
 1318408,0.,-0.00226181,-0.07195869,0.,0.,-0.00768863,0.,0.,-0.03994325
 ,0.,0.,-0.00226181,0.,0.,0.04989370,0.,0.,0.,0.,-0.01058914,0.,0.,0.,0
 .,-0.01404879,0.,0.,0.,0.,0.,0.,-0.03439043,0.,0.,0.12075257,0.,0.,0.0
 0853505,0.,0.01231897,0.04870226,0.,-0.04318107,-0.05723732,0.,-0.0163
 8868,0.,0.,0.01300602,0.,0.,0.00338265,0.02248979,0.,0.03667943,-0.053
 35189,0.,-0.07869880,0.03688647,0.,0.04201937,-0.00853505,0.,0.0123189
 7,-0.04870226,0.,-0.04318107,0.,0.,-0.00602437,0.05723732,0.,0.0163886
 8,0.,0.,-0.01300602,0.,0.,0.,0.,0.,-0.00338265,0.02248979,0.,-0.036679
 43,-0.05335189,0.,0.07869880,-0.00602437,0.,0.,0.03688647,0.,-0.042019
 37,0.01385224,0.,0.05723588,0.,0.,-0.31870555,-0.02414046,0.,0.,-0.150
 02936,0.,-0.03910664,0.,0.,0.04642524,0.,0.,0.26777076,0.,0.,-0.143460
 57,0.00514411,0.,0.00898882,0.08708491,0.,-0.01023781,-0.05667333,0.,-
 0.00906462,0.,0.,-0.00365930,0.,0.,-0.00365949,0.02466226,0.,0.0254674
 0,-0.03441538,0.,-0.06215509,0.00550105,0.,0.03233604,0.00514411,0.,-0
 .00898882,0.08708491,0.,0.01023781,-0.03555569,0.,0.00425207,-0.056673
 33,0.,-0.00906462,0.,0.,-0.00365930,0.,0.,0.01638340,0.,0.,-0.00365949
 ,-0.02466226,0.,0.02546740,0.03441538,0.,-0.06215509,-0.00425207,0.,0.
 00435166,-0.00550105,0.,0.03233604,0.12757444,0.,0.14985317,0.,0.,-1.2
 9194290,-0.11500652,0.,0.,0.23209328,0.,-0.13375340,0.,0.,0.10908639,0
 .,0.,1.24802792,0.,0.,-1.26464260,-0.00628396,0.,0.01881368,-0.0585433
 8,0.,-0.01901451,0.04106676,0.,-0.00804988,0.,0.,0.01233351,0.,0.,0.00
 487114,0.01354946,0.,0.02195749,-0.01163606,0.,0.00830734,-0.00085629,
 0.,-0.02962525,-0.00628396,0.,-0.01881368,-0.05854338,0.,0.01901451,0.
 02376058,0.,-0.00105711,0.04106676,0.,-0.00804988,0.,0.,0.01233351,0.,
 0.,-0.00915476,0.,0.,0.00487114,-0.01354946,0.,0.02195749,0.01163606,0
 .,0.00830734,0.00105711,0.,-0.00063958,0.00085629,0.,-0.02962525,-0.00
 627817,0.,-0.00138337,0.,0.,0.07463517,0.03526802,0.,0.,-1.11860774,0.
 ,0.02063480,0.,0.,0.11170154,0.,0.,-0.08395479,0.,0.,-0.24042097,-0.01
 449493,0.,-0.01847563,0.54166986,0.,0.35903193,-0.53915728,0.,-0.00962
 571,0.,0.,-0.06616817,0.,0.,0.09978173,0.01471349,0.,0.00465981,0.3550
 0006,0.,0.16218788,-0.35513492,0.,-0.15541608,-0.01449493,0.,0.0184756
 3,0.54166986,0.,-0.35903193,0.01198235,0.,-0.01457863,-0.53915728,0.,-
 0.00962571,0.,0.,-0.06616817,0.,0.,-0.02398784,0.,0.,0.09978173,-0.014
 71349,0.,0.00465981,-0.35500006,0.,0.16218788,0.01457863,0.,-0.0114316
 1,0.35513492,0.,-0.15541608,0.,0.,0.,-0.06285022,0.,0.,0.,0.,0.1418996
 7,0.,0.,0.,0.,0.,0.,0.04111674,0.,0.,-0.93103323,0.,0.,-0.01211900,0.,
 -0.03952473,0.53633783,0.,0.44495825,-0.52421884,0.,-0.00932857,0.,0.,
 -0.09341484,0.,0.,0.10274340,0.01086674,0.,0.00104889,0.39456678,0.,0.
 17988213,-0.38708096,0.,-0.18093102,0.01211900,0.,-0.03952473,-0.53633
 783,0.,0.44495825,0.,0.,-0.01835256,0.52421884,0.,0.00932857,0.,0.,0.0
 9341484,0.,0.,0.,0.,0.,-0.10274340,0.01086674,0.,-0.00104889,0.3945667
 8,0.,-0.17988213,-0.01835256,0.,0.,-0.38708096,0.,0.18093102,-0.009494
 16,0.,0.00244332,0.,0.,-0.10225569,0.02367987,0.,0.,-0.53389166,0.,0.0
 2681174,0.,0.,0.07733965,0.,0.,0.11363697,0.,0.,-0.29655530,-0.0070928
 5,0.,-0.01551320,0.25510590,0.,0.16181629,-0.23075170,0.,-0.01462752,0
 .,0.,-0.05207570,0.,0.,0.08161839,0.00198109,0.,-0.00569063,0.16310810
 ,0.,0.09145917,-0.15569614,0.,-0.08346939,-0.00709285,0.,0.01551320,0.
 25510590,0.,-0.16181629,-0.01726135,0.,-0.00939305,-0.23075170,0.,-0.0
 1462752,0.,0.,-0.05207570,0.,0.,-0.01491517,0.,0.,0.08161839,-0.001981
 09,0.,-0.00569063,-0.16310810,0.,0.09145917,0.00939305,0.,-0.00229915,
 0.15569614,0.,-0.08346939,-0.00591983,0.,-0.02763280,0.,0.,-0.05564507
 ,0.03059111,0.,0.,-0.42614491,0.,0.01978721,0.,0.,0.01218858,0.,0.,0.0
 9361209,0.,0.,-0.17566154,-0.01233564,0.,-0.03249259,0.19777690,0.,0.1
 4301796,-0.19316705,0.,0.00392280,0.,0.,-0.01598790,0.,0.,0.01680849,-
 0.00049618,0.,-0.01898351,0.12687243,0.,0.04102472,-0.11845081,0.,-0.0
 1199049,-0.01233564,0.,0.03249259,0.19777690,0.,-0.14301796,0.00772578
 ,0.,-0.00792544,-0.19316705,0.,0.00392280,0.,0.,-0.01598790,0.,0.,-0.0
 0474340,0.,0.,0.01680849,0.00049618,0.,-0.01898351,-0.12687243,0.,0.04
 102472,0.00792544,0.,-0.01005072,0.11845081,0.,-0.01199049,-0.01681578
 ,0.,-0.03198130,0.,0.,0.04553212,0.05764142,0.,0.,-0.43737137,0.,0.028
 06474,0.,0.,-0.01092947,0.,0.,-0.03262455,0.,0.,-0.11838712,-0.0204128
 2,0.,-0.02709025,0.18986497,0.,0.13849774,-0.14819528,0.,0.00195829,0.
 ,0.,-0.00856763,0.,0.,0.00141608,-0.00297318,0.,-0.00645378,0.15188335
 ,0.,0.07550584,-0.13015883,0.,-0.06949160,-0.02041282,0.,0.02709025,0.
 18986497,0.,-0.13849774,-0.02125686,0.,-0.01875133,-0.14819528,0.,0.00
 195829,0.,0.,-0.00856763,0.,0.,0.00519326,0.,0.,0.00141608,0.00297318,
 0.,-0.00645378,-0.15188335,0.,0.07550584,0.01875133,0.,0.00043954,0.13
 015883,0.,-0.06949160,-0.25205673,0.,-0.25559901,0.,0.,1.43012537,0.25
 908379,0.,0.,-0.36679607,0.,0.25088303,0.,0.,-0.25149819,0.,0.,-1.4087
 1001,0.,0.,1.34851091,-0.00351352,0.,-0.01113770,0.05385614,0.,0.04032
 179,-0.03671114,0.,0.00235800,0.,0.,0.00030758,0.,0.,-0.00390122,-0.00
 438526,0.,-0.01070768,0.04878256,0.,0.03009955,-0.03679070,0.,-0.02187
 866,-0.00351352,0.,0.01113770,0.05385614,0.,-0.04032179,-0.01363149,0.
 ,-0.00760661,-0.03671114,0.,0.00235800,0.,0.,0.00030758,0.,0.,0.001235
 63,0.,0.,-0.00390122,0.00438526,0.,-0.01070768,-0.04878256,0.,0.030099
 55,0.00760661,0.,0.00248679,0.03679070,0.,-0.02187866,-0.00677768,0.,0
 .00293712,0.,0.,0.01889025,-0.00955398,0.,0.,2.06717206,0.,-0.00968688
 ,0.,0.,-0.57424484,0.,0.,-0.03986485,0.,0.,0.44162611,0.00816584,0.,0.
 02046889,-1.02880904,0.,-0.76170378,1.01273279,0.,0.00337489,0.,0.,0.2
 9196586,0.,0.,-0.32347151,-0.00341794,0.,0.01048731,-0.78623422,0.,-0.
 20088063,0.76544352,0.,0.17478351,0.00816584,0.,-0.02046889,-1.0288090
 4,0.,0.76170378,0.00791042,0.,0.02420864,1.01273279,0.,0.00337489,0.,0
 .,0.29196586,0.,0.,0.02813076,0.,0.,-0.32347151,0.00341794,0.,0.010487
 31,0.78623422,0.,-0.20088063,-0.02420864,0.,0.01560981,-0.76544352,0.,
 0.17478351,0.01737617,0.,0.02583003,0.,0.,-0.10805455,-0.03410825,0.,0
 .,2.09134759,0.,-0.03651671,0.,0.,-0.66642220,0.,0.,0.11848503,0.,0.,0
 .36742394,0.00836604,0.,0.03164867,-1.02861967,0.,-0.93065443,1.007988
 39,0.,0.00534334,0.,0.,0.35146946,0.,0.,-0.35276347,0.00115927,0.,-0.0
 0521524,-0.91630532,0.,-0.24295448,0.90707590,0.,0.26739616,0.00836604
 ,0.,-0.03164867,-1.02861967,0.,0.93065443,0.01226524,0.,0.00807015,1.0
 0798839,0.,0.00534334,0.,0.,0.35146946,0.,0.,-0.00404933,0.,0.,-0.3527
 6347,-0.00115927,0.,-0.00521524,0.91630532,0.,-0.24295448,-0.00807015,
 0.,-0.01922644,-0.90707590,0.,0.26739616\\@


 SCIENCE AND PEACE WILL TRIUMPH OVER IGNORANCE AND WAR

                          -- PASTEUR
 Job cpu time:       0 days  3 hours 28 minutes 32.2 seconds.
 Elapsed time:       0 days  0 hours 18 minutes 40.2 seconds.
 File lengths (MBytes):  RWF=     65 Int=      0 D2E=      0 Chk=     42 Scr=      1
 Normal termination of Gaussian 16 at Tue Jul  9 11:15:33 2024.
