 Entering Gaussian System, Link 0=g16
 Initial command:
 /cluster/software/Gaussian/g16_B.01/l1.exe "/cluster/work/users/vle014/16518593/Gau-1379845.inp" -scrdir="/cluster/work/users/vle014/16518593/"
 Entering Link 1 = /cluster/software/Gaussian/g16_B.01/l1.exe PID=   1379846.
  
 Copyright (c) 1988-2017, Gaussian, Inc.  All Rights Reserved.
  
 This is part of the Gaussian(R) 16 program.  It is based on
 the Gaussian(R) 09 system (copyright 2009, Gaussian, Inc.),
 the Gaussian(R) 03 system (copyright 2003, Gaussian, Inc.),
 the Gaussian(R) 98 system (copyright 1998, Gaussian, Inc.),
 the Gaussian(R) 94 system (copyright 1995, Gaussian, Inc.),
 the Gaussian 92(TM) system (copyright 1992, Gaussian, Inc.),
 the Gaussian 90(TM) system (copyright 1990, Gaussian, Inc.),
 the Gaussian 88(TM) system (copyright 1988, Gaussian, Inc.),
 the Gaussian 86(TM) system (copyright 1986, Carnegie Mellon
 University), and the Gaussian 82(TM) system (copyright 1983,
 Carnegie Mellon University). Gaussian is a federally registered
 trademark of Gaussian, Inc.
  
 This software contains proprietary and confidential information,
 including trade secrets, belonging to Gaussian, Inc.
  
 This software is provided under written license and may be
 used, copied, transmitted, or stored only in accord with that
 written license.
  
 The following legend is applicable only to US Government
 contracts under FAR:
  
                    RESTRICTED RIGHTS LEGEND
  
 Use, reproduction and disclosure by the US Government is
 subject to restrictions as set forth in subparagraphs (a)
 and (c) of the Commercial Computer Software - Restricted
 Rights clause in FAR 52.227-19.
  
 Gaussian, Inc.
 340 Quinnipiac St., Bldg. 40, Wallingford CT 06492
  
  
 ---------------------------------------------------------------
 Warning -- This program may not be used in any manner that
 competes with the business of Gaussian, Inc. or will provide
 assistance to any competitor of Gaussian, Inc.  The licensee
 of this program is prohibited from giving any competitor of
 Gaussian, Inc. access to this program.  By using this program,
 the user acknowledges that Gaussian, Inc. is engaged in the
 business of creating and licensing software in the field of
 computational chemistry and represents and warrants to the
 licensee that it is not a competitor of Gaussian, Inc. and that
 it will not use this program in any manner prohibited above.
 ---------------------------------------------------------------
  

 Cite this work as:
 Gaussian 16, Revision B.01,
 M. J. Frisch, G. W. Trucks, H. B. Schlegel, G. E. Scuseria, 
 M. A. Robb, J. R. Cheeseman, G. Scalmani, V. Barone, 
 G. A. Petersson, H. Nakatsuji, X. Li, M. Caricato, A. V. Marenich, 
 J. Bloino, B. G. Janesko, R. Gomperts, B. Mennucci, H. P. Hratchian, 
 J. V. Ortiz, A. F. Izmaylov, J. L. Sonnenberg, D. Williams-Young, 
 F. Ding, F. Lipparini, F. Egidi, J. Goings, B. Peng, A. Petrone, 
 T. Henderson, D. Ranasinghe, V. G. Zakrzewski, J. Gao, N. Rega, 
 G. Zheng, W. Liang, M. Hada, M. Ehara, K. Toyota, R. Fukuda, 
 J. Hasegawa, M. Ishida, T. Nakajima, Y. Honda, O. Kitao, H. Nakai, 
 T. Vreven, K. Throssell, J. A. Montgomery, Jr., J. E. Peralta, 
 F. Ogliaro, M. J. Bearpark, J. J. Heyd, E. N. Brothers, K. N. Kudin, 
 V. N. Staroverov, T. A. Keith, R. Kobayashi, J. Normand, 
 K. Raghavachari, A. P. Rendell, J. C. Burant, S. S. Iyengar, 
 J. Tomasi, M. Cossi, J. M. Millam, M. Klene, C. Adamo, R. Cammi, 
 J. W. Ochterski, R. L. Martin, K. Morokuma, O. Farkas, 
 J. B. Foresman, and D. J. Fox, Gaussian, Inc., Wallingford CT, 2016.
 
 ******************************************
 Gaussian 16:  ES64L-G16RevB.01 20-Dec-2017
                28-Dec-2025 
 ******************************************
 %LindaWorkers=c5-14-ib
 %NProcShared=32
 Will use up to   32 processors via shared memory.
 %chk=inputFull_3q
 %mem=3GB
 SetLPE:    new flags="-opt 'Tsnet.Node.lindarsharg: ssh'  -nodelist 'c5-14-ib.saga' -env GAUSS_MDEF=402653184 -env GAUSS_EXEDIR="/cluster/software/Gaussian/g16_B.01""
 Will use up to    1 processors via Linda.
 ------------------------------------------------------
 #P HF/STO-3G Opt=VeryTight Int=UltraFine SCF=VeryTight
 ------------------------------------------------------
 1/7=1,18=20,19=15,38=1/1,3;
 2/9=110,12=2,17=6,18=5,40=1/2;
 3/6=3,11=9,25=1,30=1,71=1,75=-5/1,2,3;
 4//1;
 5/5=2,17=3,38=5/2;
 6/7=2,8=2,9=2,10=2,28=1/1;
 7//1,2,3,16;
 1/7=1,18=20,19=15/3(2);
 2/9=110/2;
 99//99;
 2/9=110/2;
 3/6=3,11=9,25=1,30=1,71=1,75=-5/1,2,3;
 4/5=5,16=3,69=1/1;
 5/5=2,17=3,38=5/2;
 7//1,2,3,16;
 1/7=1,18=20,19=15/3(-5);
 2/9=110/2;
 6/7=2,8=2,9=2,10=2,19=2,28=1/1;
 99/9=1/99;
 Leave Link    1 at Sun Dec 28 17:27:24 2025, MaxMem=   402653184 cpu:               3.2 elap:               0.1
 (Enter /cluster/software/Gaussian/g16_B.01/l101.exe)
 -----
 Title
 -----
 Symbolic Z-matrix:
 Charge =  0 Multiplicity = 1
 O                     0.        0.        0. 
 C                     0.        0.        1.1282 
 
 ITRead=  0  0
 MicOpt= -1 -1
 NAtoms=      2 NQM=        2 NQMF=       0 NMMI=      0 NMMIF=      0
                NMic=       0 NMicF=      0.
                    Isotopes and Nuclear Properties:
 (Nuclear quadrupole moments (NQMom) in fm**2, nuclear magnetic moments (NMagM)
  in nuclear magnetons)

  Atom         1           2
 IAtWgt=          16          12
 AtmWgt=  15.9949146  12.0000000
 NucSpn=           0           0
 AtZEff=  -0.0000000  -0.0000000
 NQMom=    0.0000000   0.0000000
 NMagM=    0.0000000   0.0000000
 AtZNuc=   8.0000000   6.0000000
 Leave Link  101 at Sun Dec 28 17:27:24 2025, MaxMem=   402653184 cpu:               4.1 elap:               0.2
 (Enter /cluster/software/Gaussian/g16_B.01/l103.exe)

 GradGradGradGradGradGradGradGradGradGradGradGradGradGradGradGradGradGrad
 Berny optimization.
 Initialization pass.
                           ----------------------------
                           !    Initial Parameters    !
                           ! (Angstroms and Degrees)  !
 --------------------------                            --------------------------
 ! Name  Definition              Value          Derivative Info.                !
 --------------------------------------------------------------------------------
 ! R1    R(1,2)                  1.1282         estimate D2E/DX2                !
 --------------------------------------------------------------------------------
 Trust Radius=3.00D-01 FncErr=1.00D-07 GrdErr=1.00D-07 EigMax=2.50D+02 EigMin=1.00D-04
 Number of steps in this run=     20 maximum allowed number of steps=    100.
 GradGradGradGradGradGradGradGradGradGradGradGradGradGradGradGradGradGrad

 Leave Link  103 at Sun Dec 28 17:27:24 2025, MaxMem=   402653184 cpu:               0.3 elap:               0.0
 (Enter /cluster/software/Gaussian/g16_B.01/l202.exe)
                          Input orientation:                          
 ---------------------------------------------------------------------
 Center     Atomic      Atomic             Coordinates (Angstroms)
 Number     Number       Type             X           Y           Z
 ---------------------------------------------------------------------
      1          8           0        0.000000    0.000000    0.000000
      2          6           0        0.000000    0.000000    1.128200
 ---------------------------------------------------------------------
 Stoichiometry    CO
 Framework group  C*V[C*(CO)]
 Deg. of freedom     1
 Full point group                 C*V     NOp   4
 Largest Abelian subgroup         C2V     NOp   4
 Largest concise Abelian subgroup C1      NOp   1
                         Standard orientation:                         
 ---------------------------------------------------------------------
 Center     Atomic      Atomic             Coordinates (Angstroms)
 Number     Number       Type             X           Y           Z
 ---------------------------------------------------------------------
      1          8           0        0.000000    0.000000    0.483514
      2          6           0        0.000000    0.000000   -0.644686
 ---------------------------------------------------------------------
 Rotational constants (GHZ):           0.0000000          57.9109892          57.9109892
 Leave Link  202 at Sun Dec 28 17:27:24 2025, MaxMem=   402653184 cpu:               0.3 elap:               0.0
 (Enter /cluster/software/Gaussian/g16_B.01/l301.exe)
 Standard basis: STO-3G (5D, 7F)
 Ernie: Thresh=  0.10000D-02 Tol=  0.10000D-05 Strict=F.
 There are     6 symmetry adapted cartesian basis functions of A1  symmetry.
 There are     0 symmetry adapted cartesian basis functions of A2  symmetry.
 There are     2 symmetry adapted cartesian basis functions of B1  symmetry.
 There are     2 symmetry adapted cartesian basis functions of B2  symmetry.
 There are     6 symmetry adapted basis functions of A1  symmetry.
 There are     0 symmetry adapted basis functions of A2  symmetry.
 There are     2 symmetry adapted basis functions of B1  symmetry.
 There are     2 symmetry adapted basis functions of B2  symmetry.
    10 basis functions,    30 primitive gaussians,    10 cartesian basis functions
     7 alpha electrons        7 beta electrons
       nuclear repulsion energy        22.5141873109 Hartrees.
 IExCor=    0 DFT=F Ex=HF Corr=None ExCW=0 ScaHFX=  1.000000
 ScaDFX=  1.000000  1.000000  1.000000  1.000000 ScalE2=  1.000000  1.000000
 IRadAn=      5 IRanWt=     -1 IRanGd=            0 ICorTp=0 IEmpDi=  4
 NAtoms=    2 NActive=    2 NUniq=    2 SFac= 1.00D+00 NAtFMM=   60 NAOKFM=F Big=F
 Integral buffers will be    131072 words long.
 Raffenetti 1 integral format.
 Two-electron integral symmetry is turned on.
 Leave Link  301 at Sun Dec 28 17:27:24 2025, MaxMem=   402653184 cpu:               1.8 elap:               0.1
 (Enter /cluster/software/Gaussian/g16_B.01/l302.exe)
 NPDir=0 NMtPBC=     1 NCelOv=     1 NCel=       1 NClECP=     1 NCelD=      1
         NCelK=      1 NCelE2=     1 NClLst=     1 CellRange=     0.0.
 One-electron integrals computed using PRISM.
 One-electron integral symmetry used in STVInt
 NBasis=    10 RedAO= T EigKep=  2.03D-01  NBF=     6     0     2     2
 NBsUse=    10 1.00D-06 EigRej= -1.00D+00 NBFU=     6     0     2     2
 Leave Link  302 at Sun Dec 28 17:27:25 2025, MaxMem=   402653184 cpu:               2.6 elap:               0.1
 (Enter /cluster/software/Gaussian/g16_B.01/l303.exe)
 DipDrv:  MaxL=1.
 Leave Link  303 at Sun Dec 28 17:27:25 2025, MaxMem=   402653184 cpu:               0.7 elap:               0.1
 (Enter /cluster/software/Gaussian/g16_B.01/l401.exe)
 ExpMin= 2.22D-01 ExpMax= 1.31D+02 ExpMxC= 1.31D+02 IAcc=3 IRadAn=         5 AccDes= 0.00D+00
 Harris functional with IExCor=  205 and IRadAn=       5 diagonalized for initial guess.
 HarFok:  IExCor=  205 AccDes= 0.00D+00 IRadAn=         5 IDoV= 1 UseB2=F ITyADJ=14
 ICtDFT=  3500011 ScaDFX=  1.000000  1.000000  1.000000  1.000000
 FoFCou: FMM=F IPFlag=           0 FMFlag=      100000 FMFlg1=           0
         NFxFlg=           0 DoJE=T BraDBF=F KetDBF=T FulRan=T
         wScrn=  0.000000 ICntrl=       500 IOpCl=  0 I1Cent=   200000004 NGrid=           0
         NMat0=    1 NMatS0=      1 NMatT0=    0 NMatD0=    1 NMtDS0=    0 NMtDT0=    0
 Petite list used in FoFCou.
 Harris En= -111.167053179441    
 JPrj=0 DoOrth=F DoCkMO=F.
 Initial guess orbital symmetries:
       Occupied  (SG) (SG) (SG) (SG) (PI) (PI) (SG)
       Virtual   (PI) (PI) (SG)
 The electronic state of the initial guess is 1-SG.
 Leave Link  401 at Sun Dec 28 17:27:25 2025, MaxMem=   402653184 cpu:               3.3 elap:               0.1
 (Enter /cluster/software/Gaussian/g16_B.01/l502.exe)
 Keep R1 ints in memory in symmetry-blocked form, NReq=6408269.
 FoFCou: FMM=F IPFlag=           0 FMFlag=           0 FMFlg1=           0
         NFxFlg=           0 DoJE=F BraDBF=F KetDBF=F FulRan=T
         wScrn=  0.000000 ICntrl=       600 IOpCl=  0 I1Cent=           0 NGrid=           0
         NMat0=    1 NMatS0=     55 NMatT0=    0 NMatD0=    1 NMtDS0=    0 NMtDT0=    0
 Petite list used in FoFCou.
 Closed shell SCF:
 Using DIIS extrapolation, IDIIS=  1040.
 NGot=   402653184 LenX=   402650208 LenY=   402649326
 Requested convergence on RMS density matrix=1.00D-08 within 128 cycles.
 Requested convergence on MAX density matrix=1.00D-06.
 Requested convergence on             energy=1.00D-06.
 No special actions if energy rises.

 Cycle   1  Pass 1  IDiag  1:
 E= -111.217480839723    
 DIIS: error= 2.66D-02 at cycle   1 NSaved=   1.
 NSaved= 1 IEnMin= 1 EnMin= -111.217480839723     IErMin= 1 ErrMin= 2.66D-02
 ErrMax= 2.66D-02  0.00D+00 EMaxC= 1.00D-01 BMatC= 1.18D-02 BMatP= 1.18D-02
 IDIUse=3 WtCom= 7.34D-01 WtEn= 2.66D-01
 Coeff-Com:  0.100D+01
 Coeff-En:   0.100D+01
 Coeff:      0.100D+01
 Gap=     0.743 Goal=   None    Shift=    0.000
 GapD=    0.743 DampG=2.000 DampE=0.500 DampFc=1.0000 IDamp=-1.
 RMSDP=1.24D-02 MaxDP=5.42D-02              OVMax= 0.00D+00

 Cycle   2  Pass 1  IDiag  1:
 E= -111.221056137496     Delta-E=       -0.003575297773 Rises=F Damp=F
 DIIS: error= 1.50D-02 at cycle   2 NSaved=   2.
 NSaved= 2 IEnMin= 2 EnMin= -111.221056137496     IErMin= 2 ErrMin= 1.50D-02
 ErrMax= 1.50D-02  0.00D+00 EMaxC= 1.00D-01 BMatC= 3.56D-03 BMatP= 1.18D-02
 IDIUse=3 WtCom= 8.50D-01 WtEn= 1.50D-01
 Coeff-Com:  0.325D+00 0.675D+00
 Coeff-En:   0.276D+00 0.724D+00
 Coeff:      0.318D+00 0.682D+00
 Gap=     0.764 Goal=   None    Shift=    0.000
 RMSDP=6.70D-03 MaxDP=2.50D-02 DE=-3.58D-03 OVMax= 0.00D+00

 Cycle   3  Pass 1  IDiag  1:
 E= -111.224417447843     Delta-E=       -0.003361310347 Rises=F Damp=F
 DIIS: error= 3.58D-03 at cycle   3 NSaved=   3.
 NSaved= 3 IEnMin= 3 EnMin= -111.224417447843     IErMin= 3 ErrMin= 3.58D-03
 ErrMax= 3.58D-03  0.00D+00 EMaxC= 1.00D-01 BMatC= 1.24D-04 BMatP= 3.56D-03
 IDIUse=3 WtCom= 9.64D-01 WtEn= 3.58D-02
 Coeff-Com: -0.267D-01 0.125D+00 0.902D+00
 Coeff-En:   0.000D+00 0.000D+00 0.100D+01
 Coeff:     -0.258D-01 0.120D+00 0.906D+00
 Gap=     0.760 Goal=   None    Shift=    0.000
 RMSDP=1.19D-03 MaxDP=5.77D-03 DE=-3.36D-03 OVMax= 0.00D+00

 Cycle   4  Pass 1  IDiag  1:
 E= -111.224573156466     Delta-E=       -0.000155708623 Rises=F Damp=F
 DIIS: error= 7.59D-04 at cycle   4 NSaved=   4.
 NSaved= 4 IEnMin= 4 EnMin= -111.224573156466     IErMin= 4 ErrMin= 7.59D-04
 ErrMax= 7.59D-04  0.00D+00 EMaxC= 1.00D-01 BMatC= 4.44D-06 BMatP= 1.24D-04
 IDIUse=3 WtCom= 9.92D-01 WtEn= 7.59D-03
 Coeff-Com:  0.134D-01-0.117D+00-0.509D+00 0.161D+01
 Coeff-En:   0.000D+00 0.000D+00 0.000D+00 0.100D+01
 Coeff:      0.133D-01-0.116D+00-0.505D+00 0.161D+01
 Gap=     0.760 Goal=   None    Shift=    0.000
 RMSDP=4.52D-04 MaxDP=2.30D-03 DE=-1.56D-04 OVMax= 0.00D+00

 Cycle   5  Pass 1  IDiag  1:
 E= -111.224579319172     Delta-E=       -0.000006162706 Rises=F Damp=F
 DIIS: error= 2.52D-05 at cycle   5 NSaved=   5.
 NSaved= 5 IEnMin= 5 EnMin= -111.224579319172     IErMin= 5 ErrMin= 2.52D-05
 ErrMax= 2.52D-05  0.00D+00 EMaxC= 1.00D-01 BMatC= 6.85D-09 BMatP= 4.44D-06
 IDIUse=1 WtCom= 1.00D+00 WtEn= 0.00D+00
 Coeff-Com: -0.161D-02 0.159D-01 0.660D-01-0.255D+00 0.117D+01
 Coeff:     -0.161D-02 0.159D-01 0.660D-01-0.255D+00 0.117D+01
 Gap=     0.760 Goal=   None    Shift=    0.000
 RMSDP=2.47D-05 MaxDP=1.12D-04 DE=-6.16D-06 OVMax= 0.00D+00

 Cycle   6  Pass 1  IDiag  1:
 E= -111.224579332990     Delta-E=       -0.000000013818 Rises=F Damp=F
 DIIS: error= 2.05D-06 at cycle   6 NSaved=   6.
 NSaved= 6 IEnMin= 6 EnMin= -111.224579332990     IErMin= 6 ErrMin= 2.05D-06
 ErrMax= 2.05D-06  0.00D+00 EMaxC= 1.00D-01 BMatC= 5.35D-11 BMatP= 6.85D-09
 IDIUse=1 WtCom= 1.00D+00 WtEn= 0.00D+00
 Coeff-Com:  0.213D-03-0.220D-02-0.889D-02 0.391D-01-0.258D+00 0.123D+01
 Coeff:      0.213D-03-0.220D-02-0.889D-02 0.391D-01-0.258D+00 0.123D+01
 Gap=     0.760 Goal=   None    Shift=    0.000
 RMSDP=2.02D-06 MaxDP=1.04D-05 DE=-1.38D-08 OVMax= 0.00D+00

 Cycle   7  Pass 1  IDiag  1:
 E= -111.224579333075     Delta-E=       -0.000000000085 Rises=F Damp=F
 DIIS: error= 1.79D-07 at cycle   7 NSaved=   7.
 NSaved= 7 IEnMin= 7 EnMin= -111.224579333075     IErMin= 7 ErrMin= 1.79D-07
 ErrMax= 1.79D-07  0.00D+00 EMaxC= 1.00D-01 BMatC= 2.86D-13 BMatP= 5.35D-11
 IDIUse=1 WtCom= 1.00D+00 WtEn= 0.00D+00
 Coeff-Com:  0.440D-05-0.402D-04-0.151D-03 0.494D-03-0.412D-02 0.115D-01
 Coeff-Com:  0.992D+00
 Coeff:      0.440D-05-0.402D-04-0.151D-03 0.494D-03-0.412D-02 0.115D-01
 Coeff:      0.992D+00
 Gap=     0.760 Goal=   None    Shift=    0.000
 RMSDP=8.99D-08 MaxDP=4.26D-07 DE=-8.55D-11 OVMax= 0.00D+00

 Cycle   8  Pass 1  IDiag  1:
 E= -111.224579333076     Delta-E=       -0.000000000000 Rises=F Damp=F
 DIIS: error= 6.69D-09 at cycle   8 NSaved=   8.
 NSaved= 8 IEnMin= 8 EnMin= -111.224579333076     IErMin= 8 ErrMin= 6.69D-09
 ErrMax= 6.69D-09  0.00D+00 EMaxC= 1.00D-01 BMatC= 3.69D-16 BMatP= 2.86D-13
 IDIUse=1 WtCom= 1.00D+00 WtEn= 0.00D+00
 Coeff-Com: -0.846D-07-0.318D-06-0.378D-05 0.581D-04-0.102D-03 0.243D-02
 Coeff-Com: -0.278D+00 0.128D+01
 Coeff:     -0.846D-07-0.318D-06-0.378D-05 0.581D-04-0.102D-03 0.243D-02
 Coeff:     -0.278D+00 0.128D+01
 Gap=     0.760 Goal=   None    Shift=    0.000
 RMSDP=2.24D-09 MaxDP=1.16D-08 DE=-2.56D-13 OVMax= 0.00D+00

 SCF Done:  E(RHF) =  -111.224579333     A.U. after    8 cycles
            NFock=  8  Conv=0.22D-08     -V/T= 2.0072
 KE= 1.104286147050D+02 PE=-3.074546986547D+02 EE= 6.328731730570D+01
 Leave Link  502 at Sun Dec 28 17:27:25 2025, MaxMem=   402653184 cpu:               5.2 elap:               0.2
 (Enter /cluster/software/Gaussian/g16_B.01/l601.exe)
 Copying SCF densities to generalized density rwf, IOpCl= 0 IROHF=0.

 **********************************************************************

            Population analysis using the SCF Density.

 **********************************************************************

 Orbital symmetries:
       Occupied  (SG) (SG) (SG) (SG) (PI) (PI) (SG)
       Virtual   (PI) (PI) (SG)
 The electronic state is 1-SG.
 Alpha  occ. eigenvalues --  -20.42425 -11.09340  -1.45996  -0.69945  -0.55110
 Alpha  occ. eigenvalues --   -0.55110  -0.44646
 Alpha virt. eigenvalues --    0.31341   0.31341   1.04007
          Condensed to atoms (all electrons):
               1          2
     1  O    7.670292   0.530412
     2  C    0.530412   5.268884
 Mulliken charges:
               1
     1  O   -0.200704
     2  C    0.200704
 Sum of Mulliken charges =  -0.00000
 Mulliken charges with hydrogens summed into heavy atoms:
               1
     1  O   -0.200704
     2  C    0.200704
 Electronic spatial extent (au):  <R**2>=             37.2367
 Charge=             -0.0000 electrons
 Dipole moment (field-independent basis, Debye):
    X=              0.0000    Y=              0.0000    Z=              0.1682  Tot=              0.1682
 Quadrupole moment (field-independent basis, Debye-Ang):
   XX=             -8.6984   YY=             -8.6984   ZZ=            -11.7265
   XY=              0.0000   XZ=              0.0000   YZ=              0.0000
 Traceless Quadrupole moment (field-independent basis, Debye-Ang):
   XX=              1.0093   YY=              1.0093   ZZ=             -2.0187
   XY=              0.0000   XZ=              0.0000   YZ=              0.0000
 Octapole moment (field-independent basis, Debye-Ang**2):
  XXX=              0.0000  YYY=              0.0000  ZZZ=              5.7446  XYY=              0.0000
  XXY=              0.0000  XXZ=              0.9936  XZZ=              0.0000  YZZ=              0.0000
  YYZ=              0.9936  XYZ=              0.0000
 Hexadecapole moment (field-independent basis, Debye-Ang**3):
 XXXX=             -5.3734 YYYY=             -5.3734 ZZZZ=            -29.6400 XXXY=              0.0000
 XXXZ=              0.0000 YYYX=              0.0000 YYYZ=              0.0000 ZZZX=              0.0000
 ZZZY=              0.0000 XXYY=             -1.7911 XXZZ=             -5.1422 YYZZ=             -5.1422
 XXYZ=              0.0000 YYXZ=              0.0000 ZZXY=              0.0000
 N-N= 2.251418731090D+01 E-N=-3.074546986047D+02  KE= 1.104286147050D+02
 Symmetry A1   KE= 1.025391042641D+02
 Symmetry A2   KE= 0.000000000000D+00
 Symmetry B1   KE= 3.944755220438D+00
 Symmetry B2   KE= 3.944755220438D+00
 No NMR shielding tensors so no spin-rotation constants.
 Leave Link  601 at Sun Dec 28 17:27:25 2025, MaxMem=   402653184 cpu:               2.6 elap:               0.1
 (Enter /cluster/software/Gaussian/g16_B.01/l701.exe)
 ... and contract with generalized density number  0.
 Compute integral first derivatives.
 Leave Link  701 at Sun Dec 28 17:27:26 2025, MaxMem=   402653184 cpu:               2.6 elap:               0.1
 (Enter /cluster/software/Gaussian/g16_B.01/l702.exe)
 L702 exits ... SP integral derivatives will be done elsewhere.
 Leave Link  702 at Sun Dec 28 17:27:26 2025, MaxMem=   402653184 cpu:               0.6 elap:               0.1
 (Enter /cluster/software/Gaussian/g16_B.01/l703.exe)
 Integral derivatives from FoFJK, PRISM(SPDF).
 Compute integral first derivatives, UseDBF=F ICtDFT=           0.
 Calling FoFJK, ICntrl=      2127 FMM=F ISym2X=1 I1Cent= 0 IOpClX= 0 NMat=1 NMatS=1 NMatT=0.
 FoFJK:  IHMeth= 1 ICntrl=    2127 DoSepK=F KAlg= 0 I1Cent=           0 FoldK=F
 IRaf=         0 NMat=       1 IRICut=       1 DoRegI=T DoRafI=F ISym2E= 1 IDoP0=0 IntGTp=1.
 FoFCou: FMM=F IPFlag=           0 FMFlag=      100000 FMFlg1=         800
         NFxFlg=           0 DoJE=F BraDBF=F KetDBF=F FulRan=T
         wScrn=  0.000000 ICntrl=      2127 IOpCl=  0 I1Cent=           0 NGrid=           0
         NMat0=    1 NMatS0=      1 NMatT0=    0 NMatD0=    1 NMtDS0=    0 NMtDT0=    0
 Petite list used in FoFCou.
 Leave Link  703 at Sun Dec 28 17:27:26 2025, MaxMem=   402653184 cpu:               3.1 elap:               0.1
 (Enter /cluster/software/Gaussian/g16_B.01/l716.exe)
 Dipole        = 0.00000000D+00 0.00000000D+00 6.61908631D-02
 ***** Axes restored to original set *****
 -------------------------------------------------------------------
 Center     Atomic                   Forces (Hartrees/Bohr)
 Number     Number              X              Y              Z
 -------------------------------------------------------------------
      1        8          -0.000000000   -0.000000000   -0.054267026
      2        6          -0.000000000   -0.000000000    0.054267026
 -------------------------------------------------------------------
 Cartesian Forces:  Max     0.054267026 RMS     0.031331082
 Leave Link  716 at Sun Dec 28 17:27:26 2025, MaxMem=   402653184 cpu:               0.9 elap:               0.1
 (Enter /cluster/software/Gaussian/g16_B.01/l103.exe)

 GradGradGradGradGradGradGradGradGradGradGradGradGradGradGradGradGradGrad
 Berny optimization.
 FormGI is forming the generalized inverse of G from B-inverse, IUseBI=4.
 Internal  Forces:  Max     0.054267026 RMS     0.054267026
 Search for a local minimum.
 Step number   1 out of a maximum of   20
 All quantities printed in internal units (Hartrees-Bohrs-Radians)
 RMS Force = .54267D-01 SwitMx=.10000D-02 MixMth= 1
 Mixed Optimization -- RFO/linear search
 Second derivative matrix not updated -- first step.
 The second derivative matrix:
                          R1
           R1           1.51085
 ITU=  0
     Eigenvalues ---    1.51085
 RFO step:  Lambda=-1.94666006D-03 EMin= 1.51085477D+00
 Linear search not attempted -- first point.
 Iteration  1 RMS(Cart)=  0.02536525 RMS(Int)=  0.00000000
 Iteration  2 RMS(Cart)=  0.00000000 RMS(Int)=  0.00000000
 ITry= 1 IFail=0 DXMaxC= 1.79D-02 DCOld= 1.00D+10 DXMaxT= 3.00D-01 DXLimC= 3.00D+00 Rises=F
 ClnCor:  largest displacement from symmetrization is 0.00D+00 for atom     0.
 Variable       Old X    -DE/DX   Delta X   Delta X   Delta X     New X
                                 (Linear)    (Quad)   (Total)
    R1        2.13199   0.05427   0.00000   0.03587   0.03587   2.16786
         Item               Value     Threshold  Converged?
 Maximum Force            0.054267     0.000002     NO 
 RMS     Force            0.054267     0.000001     NO 
 Maximum Displacement     0.017936     0.000006     NO 
 RMS     Displacement     0.025365     0.000004     NO 
 Predicted change in Energy=-9.745825D-04
 Lowest energy point so far.  Saving SCF results.
 GradGradGradGradGradGradGradGradGradGradGradGradGradGradGradGradGradGrad

 Leave Link  103 at Sun Dec 28 17:27:26 2025, MaxMem=   402653184 cpu:               0.9 elap:               0.1
 (Enter /cluster/software/Gaussian/g16_B.01/l202.exe)
                          Input orientation:                          
 ---------------------------------------------------------------------
 Center     Atomic      Atomic             Coordinates (Angstroms)
 Number     Number       Type             X           Y           Z
 ---------------------------------------------------------------------
      1          8           0        0.000000    0.000000   -0.009491
      2          6           0        0.000000    0.000000    1.137691
 ---------------------------------------------------------------------
 Stoichiometry    CO
 Framework group  C*V[C*(CO)]
 Deg. of freedom     1
 Full point group                 C*V     NOp   4
 RotChk:  IX=0 Diff= 0.00D+00
 Largest Abelian subgroup         C2V     NOp   4
 Largest concise Abelian subgroup C1      NOp   1
                         Standard orientation:                         
 ---------------------------------------------------------------------
 Center     Atomic      Atomic             Coordinates (Angstroms)
 Number     Number       Type             X           Y           Z
 ---------------------------------------------------------------------
      1          8           0        0.000000    0.000000    0.491650
      2          6           0        0.000000    0.000000   -0.655533
 ---------------------------------------------------------------------
 Rotational constants (GHZ):           0.0000000          56.0103243          56.0103243
 Leave Link  202 at Sun Dec 28 17:27:26 2025, MaxMem=   402653184 cpu:               0.3 elap:               0.0
 (Enter /cluster/software/Gaussian/g16_B.01/l301.exe)
 Standard basis: STO-3G (5D, 7F)
 Ernie: Thresh=  0.10000D-02 Tol=  0.10000D-05 Strict=F.
 There are     6 symmetry adapted cartesian basis functions of A1  symmetry.
 There are     0 symmetry adapted cartesian basis functions of A2  symmetry.
 There are     2 symmetry adapted cartesian basis functions of B1  symmetry.
 There are     2 symmetry adapted cartesian basis functions of B2  symmetry.
 There are     6 symmetry adapted basis functions of A1  symmetry.
 There are     0 symmetry adapted basis functions of A2  symmetry.
 There are     2 symmetry adapted basis functions of B1  symmetry.
 There are     2 symmetry adapted basis functions of B2  symmetry.
    10 basis functions,    30 primitive gaussians,    10 cartesian basis functions
     7 alpha electrons        7 beta electrons
       nuclear repulsion energy        22.1416421202 Hartrees.
 IExCor=    0 DFT=F Ex=HF Corr=None ExCW=0 ScaHFX=  1.000000
 ScaDFX=  1.000000  1.000000  1.000000  1.000000 ScalE2=  1.000000  1.000000
 IRadAn=      5 IRanWt=     -1 IRanGd=            0 ICorTp=0 IEmpDi=  4
 NAtoms=    2 NActive=    2 NUniq=    2 SFac= 1.00D+00 NAtFMM=   60 NAOKFM=F Big=F
 Integral buffers will be    131072 words long.
 Raffenetti 1 integral format.
 Two-electron integral symmetry is turned on.
 Leave Link  301 at Sun Dec 28 17:27:26 2025, MaxMem=   402653184 cpu:               1.9 elap:               0.1
 (Enter /cluster/software/Gaussian/g16_B.01/l302.exe)
 NPDir=0 NMtPBC=     1 NCelOv=     1 NCel=       1 NClECP=     1 NCelD=      1
         NCelK=      1 NCelE2=     1 NClLst=     1 CellRange=     0.0.
 One-electron integrals computed using PRISM.
 One-electron integral symmetry used in STVInt
 NBasis=    10 RedAO= T EigKep=  2.15D-01  NBF=     6     0     2     2
 NBsUse=    10 1.00D-06 EigRej= -1.00D+00 NBFU=     6     0     2     2
 Leave Link  302 at Sun Dec 28 17:27:27 2025, MaxMem=   402653184 cpu:               2.6 elap:               0.1
 (Enter /cluster/software/Gaussian/g16_B.01/l303.exe)
 DipDrv:  MaxL=1.
 Leave Link  303 at Sun Dec 28 17:27:27 2025, MaxMem=   402653184 cpu:               0.8 elap:               0.1
 (Enter /cluster/software/Gaussian/g16_B.01/l401.exe)
 Initial guess from the checkpoint file:  "inputFull_3q.chk"
 B after Tr=     0.000000    0.000000    0.000000
         Rot=    1.000000    0.000000    0.000000    0.000000 Ang=   0.00 deg.
 Guess basis will be translated and rotated to current coordinates.
 JPrj=2 DoOrth=T DoCkMO=T.
 Initial guess orbital symmetries:
       Occupied  (SG) (SG) (SG) (SG) (PI) (PI) (SG)
       Virtual   (PI) (PI) (SG)
 The electronic state of the initial guess is 1-SG.
 Leave Link  401 at Sun Dec 28 17:27:27 2025, MaxMem=   402653184 cpu:               3.1 elap:               0.1
 (Enter /cluster/software/Gaussian/g16_B.01/l502.exe)
 Keep R1 ints in memory in symmetry-blocked form, NReq=6408269.
 FoFCou: FMM=F IPFlag=           0 FMFlag=           0 FMFlg1=           0
         NFxFlg=           0 DoJE=F BraDBF=F KetDBF=F FulRan=T
         wScrn=  0.000000 ICntrl=       600 IOpCl=  0 I1Cent=           0 NGrid=           0
         NMat0=    1 NMatS0=     55 NMatT0=    0 NMatD0=    1 NMtDS0=    0 NMtDT0=    0
 Petite list used in FoFCou.
 Closed shell SCF:
 Using DIIS extrapolation, IDIIS=  1040.
 NGot=   402653184 LenX=   402650208 LenY=   402649326
 Requested convergence on RMS density matrix=1.00D-08 within 128 cycles.
 Requested convergence on MAX density matrix=1.00D-06.
 Requested convergence on             energy=1.00D-06.
 No special actions if energy rises.

 Cycle   1  Pass 1  IDiag  1:
 E= -111.225335605865    
 DIIS: error= 3.73D-03 at cycle   1 NSaved=   1.
 NSaved= 1 IEnMin= 1 EnMin= -111.225335605865     IErMin= 1 ErrMin= 3.73D-03
 ErrMax= 3.73D-03  0.00D+00 EMaxC= 1.00D-01 BMatC= 1.05D-04 BMatP= 1.05D-04
 IDIUse=3 WtCom= 9.63D-01 WtEn= 3.73D-02
 Coeff-Com:  0.100D+01
 Coeff-En:   0.100D+01
 Coeff:      0.100D+01
 Gap=     0.751 Goal=   None    Shift=    0.000
 GapD=    0.751 DampG=2.000 DampE=1.000 DampFc=2.0000 IDamp=-1.
 RMSDP=1.34D-03 MaxDP=6.11D-03              OVMax= 0.00D+00

 Cycle   2  Pass 1  IDiag  1:
 E= -111.225425531763     Delta-E=       -0.000089925898 Rises=F Damp=F
 DIIS: error= 7.79D-04 at cycle   2 NSaved=   2.
 NSaved= 2 IEnMin= 2 EnMin= -111.225425531763     IErMin= 2 ErrMin= 7.79D-04
 ErrMax= 7.79D-04  0.00D+00 EMaxC= 1.00D-01 BMatC= 7.37D-06 BMatP= 1.05D-04
 IDIUse=3 WtCom= 9.92D-01 WtEn= 7.79D-03
 Coeff-Com: -0.674D-01 0.107D+01
 Coeff-En:   0.000D+00 0.100D+01
 Coeff:     -0.669D-01 0.107D+01
 Gap=     0.750 Goal=   None    Shift=    0.000
 RMSDP=5.20D-04 MaxDP=2.05D-03 DE=-8.99D-05 OVMax= 0.00D+00

 Cycle   3  Pass 1  IDiag  1:
 E= -111.225436506628     Delta-E=       -0.000010974865 Rises=F Damp=F
 DIIS: error= 6.74D-04 at cycle   3 NSaved=   3.
 NSaved= 3 IEnMin= 3 EnMin= -111.225436506628     IErMin= 3 ErrMin= 6.74D-04
 ErrMax= 6.74D-04  0.00D+00 EMaxC= 1.00D-01 BMatC= 4.79D-06 BMatP= 7.37D-06
 IDIUse=3 WtCom= 9.93D-01 WtEn= 6.74D-03
 Coeff-Com: -0.124D+00 0.465D+00 0.658D+00
 Coeff-En:   0.000D+00 0.000D+00 0.100D+01
 Coeff:     -0.123D+00 0.462D+00 0.661D+00
 Gap=     0.750 Goal=   None    Shift=    0.000
 RMSDP=2.27D-04 MaxDP=1.14D-03 DE=-1.10D-05 OVMax= 0.00D+00

 Cycle   4  Pass 1  IDiag  1:
 E= -111.225441047319     Delta-E=       -0.000004540691 Rises=F Damp=F
 DIIS: error= 1.38D-04 at cycle   4 NSaved=   4.
 NSaved= 4 IEnMin= 4 EnMin= -111.225441047319     IErMin= 4 ErrMin= 1.38D-04
 ErrMax= 1.38D-04  0.00D+00 EMaxC= 1.00D-01 BMatC= 1.51D-07 BMatP= 4.79D-06
 IDIUse=3 WtCom= 9.99D-01 WtEn= 1.38D-03
 Coeff-Com:  0.206D-01-0.169D+00-0.230D+00 0.138D+01
 Coeff-En:   0.000D+00 0.000D+00 0.000D+00 0.100D+01
 Coeff:      0.206D-01-0.169D+00-0.230D+00 0.138D+01
 Gap=     0.750 Goal=   None    Shift=    0.000
 RMSDP=1.03D-04 MaxDP=5.00D-04 DE=-4.54D-06 OVMax= 0.00D+00

 Cycle   5  Pass 1  IDiag  1:
 E= -111.225441398632     Delta-E=       -0.000000351313 Rises=F Damp=F
 DIIS: error= 2.03D-05 at cycle   5 NSaved=   5.
 NSaved= 5 IEnMin= 5 EnMin= -111.225441398632     IErMin= 5 ErrMin= 2.03D-05
 ErrMax= 2.03D-05  0.00D+00 EMaxC= 1.00D-01 BMatC= 4.12D-09 BMatP= 1.51D-07
 IDIUse=1 WtCom= 1.00D+00 WtEn= 0.00D+00
 Coeff-Com: -0.417D-02 0.519D-01 0.487D-01-0.495D+00 0.140D+01
 Coeff:     -0.417D-02 0.519D-01 0.487D-01-0.495D+00 0.140D+01
 Gap=     0.750 Goal=   None    Shift=    0.000
 RMSDP=1.98D-05 MaxDP=9.11D-05 DE=-3.51D-07 OVMax= 0.00D+00

 Cycle   6  Pass 1  IDiag  1:
 E= -111.225441406745     Delta-E=       -0.000000008113 Rises=F Damp=F
 DIIS: error= 1.03D-07 at cycle   6 NSaved=   6.
 NSaved= 6 IEnMin= 6 EnMin= -111.225441406745     IErMin= 6 ErrMin= 1.03D-07
 ErrMax= 1.03D-07  0.00D+00 EMaxC= 1.00D-01 BMatC= 9.57D-14 BMatP= 4.12D-09
 IDIUse=1 WtCom= 1.00D+00 WtEn= 0.00D+00
 Coeff-Com:  0.390D-03-0.483D-02-0.464D-02 0.464D-01-0.129D+00 0.109D+01
 Coeff:      0.390D-03-0.483D-02-0.464D-02 0.464D-01-0.129D+00 0.109D+01
 Gap=     0.750 Goal=   None    Shift=    0.000
 RMSDP=5.35D-08 MaxDP=2.34D-07 DE=-8.11D-09 OVMax= 0.00D+00

 Cycle   7  Pass 1  IDiag  1:
 E= -111.225441406746     Delta-E=       -0.000000000000 Rises=F Damp=F
 DIIS: error= 1.44D-08 at cycle   7 NSaved=   7.
 NSaved= 7 IEnMin= 7 EnMin= -111.225441406746     IErMin= 7 ErrMin= 1.44D-08
 ErrMax= 1.44D-08  0.00D+00 EMaxC= 1.00D-01 BMatC= 1.80D-15 BMatP= 9.57D-14
 IDIUse=1 WtCom= 1.00D+00 WtEn= 0.00D+00
 Coeff-Com: -0.612D-04 0.766D-03 0.723D-03-0.735D-02 0.204D-01-0.229D+00
 Coeff-Com:  0.121D+01
 Coeff:     -0.612D-04 0.766D-03 0.723D-03-0.735D-02 0.204D-01-0.229D+00
 Coeff:      0.121D+01
 Gap=     0.750 Goal=   None    Shift=    0.000
 RMSDP=5.83D-09 MaxDP=3.57D-08 DE=-1.99D-13 OVMax= 0.00D+00

 SCF Done:  E(RHF) =  -111.225441407     A.U. after    7 cycles
            NFock=  7  Conv=0.58D-08     -V/T= 2.0075
 KE= 1.103965153315D+02 PE=-3.067909004398D+02 EE= 6.302730158136D+01
 Leave Link  502 at Sun Dec 28 17:27:27 2025, MaxMem=   402653184 cpu:               5.0 elap:               0.2
 (Enter /cluster/software/Gaussian/g16_B.01/l701.exe)
 ... and contract with generalized density number  0.
 Compute integral first derivatives.
 Leave Link  701 at Sun Dec 28 17:27:27 2025, MaxMem=   402653184 cpu:               2.6 elap:               0.1
 (Enter /cluster/software/Gaussian/g16_B.01/l702.exe)
 L702 exits ... SP integral derivatives will be done elsewhere.
 Leave Link  702 at Sun Dec 28 17:27:28 2025, MaxMem=   402653184 cpu:               0.6 elap:               0.1
 (Enter /cluster/software/Gaussian/g16_B.01/l703.exe)
 Integral derivatives from FoFJK, PRISM(SPDF).
 Compute integral first derivatives, UseDBF=F ICtDFT=           0.
 Calling FoFJK, ICntrl=      2127 FMM=F ISym2X=1 I1Cent= 0 IOpClX= 0 NMat=1 NMatS=1 NMatT=0.
 FoFJK:  IHMeth= 1 ICntrl=    2127 DoSepK=F KAlg= 0 I1Cent=           0 FoldK=F
 IRaf=         0 NMat=       1 IRICut=       1 DoRegI=T DoRafI=F ISym2E= 1 IDoP0=0 IntGTp=1.
 FoFCou: FMM=F IPFlag=           0 FMFlag=      100000 FMFlg1=         800
         NFxFlg=           0 DoJE=F BraDBF=F KetDBF=F FulRan=T
         wScrn=  0.000000 ICntrl=      2127 IOpCl=  0 I1Cent=           0 NGrid=           0
         NMat0=    1 NMatS0=      1 NMatT0=    0 NMatD0=    1 NMtDS0=    0 NMtDT0=    0
 Petite list used in FoFCou.
 Leave Link  703 at Sun Dec 28 17:27:28 2025, MaxMem=   402653184 cpu:               3.1 elap:               0.1
 (Enter /cluster/software/Gaussian/g16_B.01/l716.exe)
 Dipole        = 0.00000000D+00 0.00000000D+00 4.72040611D-02
 ***** Axes restored to original set *****
 -------------------------------------------------------------------
 Center     Atomic                   Forces (Hartrees/Bohr)
 Number     Number              X              Y              Z
 -------------------------------------------------------------------
      1        8          -0.000000000   -0.000000000    0.005034708
      2        6          -0.000000000   -0.000000000   -0.005034708
 -------------------------------------------------------------------
 Cartesian Forces:  Max     0.005034708 RMS     0.002906790
 Leave Link  716 at Sun Dec 28 17:27:28 2025, MaxMem=   402653184 cpu:               0.8 elap:               0.1
 (Enter /cluster/software/Gaussian/g16_B.01/l103.exe)

 GradGradGradGradGradGradGradGradGradGradGradGradGradGradGradGradGradGrad
 Berny optimization.
 Using GEDIIS/GDIIS optimizer.
 Red2BG is reusing G-inverse.
 Internal  Forces:  Max     0.005034708 RMS     0.005034708
 Search for a local minimum.
 Step number   2 out of a maximum of   20
 All quantities printed in internal units (Hartrees-Bohrs-Radians)
 RMS Force = .50347D-02 SwitMx=.10000D-02 MixMth= 1
 Mixed Optimization -- RFO/linear search
 Update second derivatives using D2CorX and points    1    2
 DE= -8.62D-04 DEPred=-9.75D-04 R= 8.85D-01
 TightC=F SS=  1.41D+00  RLast= 3.59D-02 DXNew= 5.0454D-01 1.0762D-01
 Trust test= 8.85D-01 RLast= 3.59D-02 DXMaxT set to 3.00D-01
 The second derivative matrix:
                          R1
           R1           1.65315
 ITU=  1  0
 Use linear search instead of GDIIS.
     Eigenvalues ---    1.65315
 RFO step:  Lambda= 0.00000000D+00 EMin= 1.65315394D+00
 Quartic linear search produced a step of -0.08969.
 Iteration  1 RMS(Cart)=  0.00227491 RMS(Int)=  0.00000000
 Iteration  2 RMS(Cart)=  0.00000000 RMS(Int)=  0.00000000
 ITry= 1 IFail=0 DXMaxC= 1.61D-03 DCOld= 1.00D+10 DXMaxT= 3.00D-01 DXLimC= 3.00D+00 Rises=F
 ClnCor:  largest displacement from symmetrization is 0.00D+00 for atom     0.
 Variable       Old X    -DE/DX   Delta X   Delta X   Delta X     New X
                                 (Linear)    (Quad)   (Total)
    R1        2.16786  -0.00503  -0.00322   0.00000  -0.00322   2.16464
         Item               Value     Threshold  Converged?
 Maximum Force            0.005035     0.000002     NO 
 RMS     Force            0.005035     0.000001     NO 
 Maximum Displacement     0.001609     0.000006     NO 
 RMS     Displacement     0.002275     0.000004     NO 
 Predicted change in Energy=-7.642278D-06
 Lowest energy point so far.  Saving SCF results.
 GradGradGradGradGradGradGradGradGradGradGradGradGradGradGradGradGradGrad

 Leave Link  103 at Sun Dec 28 17:27:28 2025, MaxMem=   402653184 cpu:               0.7 elap:               0.1
 (Enter /cluster/software/Gaussian/g16_B.01/l202.exe)
                          Input orientation:                          
 ---------------------------------------------------------------------
 Center     Atomic      Atomic             Coordinates (Angstroms)
 Number     Number       Type             X           Y           Z
 ---------------------------------------------------------------------
      1          8           0        0.000000    0.000000   -0.008640
      2          6           0        0.000000    0.000000    1.136840
 ---------------------------------------------------------------------
 Stoichiometry    CO
 Framework group  C*V[C*(CO)]
 Deg. of freedom     1
 Full point group                 C*V     NOp   4
 RotChk:  IX=0 Diff= 0.00D+00
 Largest Abelian subgroup         C2V     NOp   4
 Largest concise Abelian subgroup C1      NOp   1
                         Standard orientation:                         
 ---------------------------------------------------------------------
 Center     Atomic      Atomic             Coordinates (Angstroms)
 Number     Number       Type             X           Y           Z
 ---------------------------------------------------------------------
      1          8           0        0.000000    0.000000    0.490920
      2          6           0        0.000000    0.000000   -0.654560
 ---------------------------------------------------------------------
 Rotational constants (GHZ):           0.0000000          56.1769390          56.1769390
 Leave Link  202 at Sun Dec 28 17:27:28 2025, MaxMem=   402653184 cpu:               0.3 elap:               0.0
 (Enter /cluster/software/Gaussian/g16_B.01/l301.exe)
 Standard basis: STO-3G (5D, 7F)
 Ernie: Thresh=  0.10000D-02 Tol=  0.10000D-05 Strict=F.
 There are     6 symmetry adapted cartesian basis functions of A1  symmetry.
 There are     0 symmetry adapted cartesian basis functions of A2  symmetry.
 There are     2 symmetry adapted cartesian basis functions of B1  symmetry.
 There are     2 symmetry adapted cartesian basis functions of B2  symmetry.
 There are     6 symmetry adapted basis functions of A1  symmetry.
 There are     0 symmetry adapted basis functions of A2  symmetry.
 There are     2 symmetry adapted basis functions of B1  symmetry.
 There are     2 symmetry adapted basis functions of B2  symmetry.
    10 basis functions,    30 primitive gaussians,    10 cartesian basis functions
     7 alpha electrons        7 beta electrons
       nuclear repulsion energy        22.1745501835 Hartrees.
 IExCor=    0 DFT=F Ex=HF Corr=None ExCW=0 ScaHFX=  1.000000
 ScaDFX=  1.000000  1.000000  1.000000  1.000000 ScalE2=  1.000000  1.000000
 IRadAn=      5 IRanWt=     -1 IRanGd=            0 ICorTp=0 IEmpDi=  4
 NAtoms=    2 NActive=    2 NUniq=    2 SFac= 1.00D+00 NAtFMM=   60 NAOKFM=F Big=F
 Integral buffers will be    131072 words long.
 Raffenetti 1 integral format.
 Two-electron integral symmetry is turned on.
 Leave Link  301 at Sun Dec 28 17:27:28 2025, MaxMem=   402653184 cpu:               1.9 elap:               0.1
 (Enter /cluster/software/Gaussian/g16_B.01/l302.exe)
 NPDir=0 NMtPBC=     1 NCelOv=     1 NCel=       1 NClECP=     1 NCelD=      1
         NCelK=      1 NCelE2=     1 NClLst=     1 CellRange=     0.0.
 One-electron integrals computed using PRISM.
 One-electron integral symmetry used in STVInt
 NBasis=    10 RedAO= T EigKep=  2.14D-01  NBF=     6     0     2     2
 NBsUse=    10 1.00D-06 EigRej= -1.00D+00 NBFU=     6     0     2     2
 Leave Link  302 at Sun Dec 28 17:27:29 2025, MaxMem=   402653184 cpu:               2.5 elap:               0.1
 (Enter /cluster/software/Gaussian/g16_B.01/l303.exe)
 DipDrv:  MaxL=1.
 Leave Link  303 at Sun Dec 28 17:27:29 2025, MaxMem=   402653184 cpu:               0.7 elap:               0.1
 (Enter /cluster/software/Gaussian/g16_B.01/l401.exe)
 Initial guess from the checkpoint file:  "inputFull_3q.chk"
 B after Tr=     0.000000    0.000000   -0.000000
         Rot=    1.000000    0.000000    0.000000    0.000000 Ang=   0.00 deg.
 Guess basis will be translated and rotated to current coordinates.
 JPrj=2 DoOrth=T DoCkMO=T.
 Initial guess orbital symmetries:
       Occupied  (SG) (SG) (SG) (SG) (PI) (PI) (SG)
       Virtual   (PI) (PI) (SG)
 The electronic state of the initial guess is 1-SG.
 Leave Link  401 at Sun Dec 28 17:27:29 2025, MaxMem=   402653184 cpu:               3.0 elap:               0.1
 (Enter /cluster/software/Gaussian/g16_B.01/l502.exe)
 Keep R1 ints in memory in symmetry-blocked form, NReq=6408269.
 FoFCou: FMM=F IPFlag=           0 FMFlag=           0 FMFlg1=           0
         NFxFlg=           0 DoJE=F BraDBF=F KetDBF=F FulRan=T
         wScrn=  0.000000 ICntrl=       600 IOpCl=  0 I1Cent=           0 NGrid=           0
         NMat0=    1 NMatS0=     55 NMatT0=    0 NMatD0=    1 NMtDS0=    0 NMtDT0=    0
 Petite list used in FoFCou.
 Closed shell SCF:
 Using DIIS extrapolation, IDIIS=  1040.
 NGot=   402653184 LenX=   402650208 LenY=   402649326
 Requested convergence on RMS density matrix=1.00D-08 within 128 cycles.
 Requested convergence on MAX density matrix=1.00D-06.
 Requested convergence on             energy=1.00D-06.
 No special actions if energy rises.

 Cycle   1  Pass 1  IDiag  1:
 E= -111.225448691255    
 DIIS: error= 3.30D-04 at cycle   1 NSaved=   1.
 NSaved= 1 IEnMin= 1 EnMin= -111.225448691255     IErMin= 1 ErrMin= 3.30D-04
 ErrMax= 3.30D-04  0.00D+00 EMaxC= 1.00D-01 BMatC= 8.08D-07 BMatP= 8.08D-07
 IDIUse=3 WtCom= 9.97D-01 WtEn= 3.30D-03
 Coeff-Com:  0.100D+01
 Coeff-En:   0.100D+01
 Coeff:      0.100D+01
 Gap=     0.751 Goal=   None    Shift=    0.000
 RMSDP=1.20D-04 MaxDP=5.34D-04              OVMax= 0.00D+00

 Cycle   2  Pass 1  IDiag  1:
 E= -111.225449396803     Delta-E=       -0.000000705548 Rises=F Damp=F
 DIIS: error= 6.59D-05 at cycle   2 NSaved=   2.
 NSaved= 2 IEnMin= 2 EnMin= -111.225449396803     IErMin= 2 ErrMin= 6.59D-05
 ErrMax= 6.59D-05  0.00D+00 EMaxC= 1.00D-01 BMatC= 5.54D-08 BMatP= 8.08D-07
 IDIUse=1 WtCom= 1.00D+00 WtEn= 0.00D+00
 Coeff-Com: -0.820D-01 0.108D+01
 Coeff:     -0.820D-01 0.108D+01
 Gap=     0.751 Goal=   None    Shift=    0.000
 RMSDP=4.58D-05 MaxDP=1.76D-04 DE=-7.06D-07 OVMax= 0.00D+00

 Cycle   3  Pass 1  IDiag  1:
 E= -111.225449481530     Delta-E=       -0.000000084726 Rises=F Damp=F
 DIIS: error= 5.78D-05 at cycle   3 NSaved=   3.
 NSaved= 3 IEnMin= 3 EnMin= -111.225449481530     IErMin= 3 ErrMin= 5.78D-05
 ErrMax= 5.78D-05  0.00D+00 EMaxC= 1.00D-01 BMatC= 3.49D-08 BMatP= 5.54D-08
 IDIUse=1 WtCom= 1.00D+00 WtEn= 0.00D+00
 Coeff-Com: -0.124D+00 0.469D+00 0.656D+00
 Coeff:     -0.124D+00 0.469D+00 0.656D+00
 Gap=     0.751 Goal=   None    Shift=    0.000
 RMSDP=1.94D-05 MaxDP=9.70D-05 DE=-8.47D-08 OVMax= 0.00D+00

 Cycle   4  Pass 1  IDiag  1:
 E= -111.225449514543     Delta-E=       -0.000000033013 Rises=F Damp=F
 DIIS: error= 1.19D-05 at cycle   4 NSaved=   4.
 NSaved= 4 IEnMin= 4 EnMin= -111.225449514543     IErMin= 4 ErrMin= 1.19D-05
 ErrMax= 1.19D-05  0.00D+00 EMaxC= 1.00D-01 BMatC= 1.14D-09 BMatP= 3.49D-08
 IDIUse=1 WtCom= 1.00D+00 WtEn= 0.00D+00
 Coeff-Com:  0.210D-01-0.169D+00-0.224D+00 0.137D+01
 Coeff:      0.210D-01-0.169D+00-0.224D+00 0.137D+01
 Gap=     0.751 Goal=   None    Shift=    0.000
 RMSDP=8.91D-06 MaxDP=4.32D-05 DE=-3.30D-08 OVMax= 0.00D+00

 Cycle   5  Pass 1  IDiag  1:
 E= -111.225449517185     Delta-E=       -0.000000002642 Rises=F Damp=F
 DIIS: error= 1.78D-06 at cycle   5 NSaved=   5.
 NSaved= 5 IEnMin= 5 EnMin= -111.225449517185     IErMin= 5 ErrMin= 1.78D-06
 ErrMax= 1.78D-06  0.00D+00 EMaxC= 1.00D-01 BMatC= 3.19D-11 BMatP= 1.14D-09
 IDIUse=1 WtCom= 1.00D+00 WtEn= 0.00D+00
 Coeff-Com: -0.416D-02 0.513D-01 0.447D-01-0.487D+00 0.140D+01
 Coeff:     -0.416D-02 0.513D-01 0.447D-01-0.487D+00 0.140D+01
 Gap=     0.751 Goal=   None    Shift=    0.000
 RMSDP=1.73D-06 MaxDP=7.97D-06 DE=-2.64D-09 OVMax= 0.00D+00

 Cycle   6  Pass 1  IDiag  1:
 E= -111.225449517247     Delta-E=       -0.000000000062 Rises=F Damp=F
 DIIS: error= 9.33D-09 at cycle   6 NSaved=   6.
 NSaved= 6 IEnMin= 6 EnMin= -111.225449517247     IErMin= 6 ErrMin= 9.33D-09
 ErrMax= 9.33D-09  0.00D+00 EMaxC= 1.00D-01 BMatC= 6.16D-16 BMatP= 3.19D-11
 IDIUse=1 WtCom= 1.00D+00 WtEn= 0.00D+00
 Coeff-Com:  0.409D-03-0.501D-02-0.445D-02 0.476D-01-0.135D+00 0.110D+01
 Coeff:      0.409D-03-0.501D-02-0.445D-02 0.476D-01-0.135D+00 0.110D+01
 Gap=     0.751 Goal=   None    Shift=    0.000
 RMSDP=3.40D-09 MaxDP=1.67D-08 DE=-6.24D-11 OVMax= 0.00D+00

 SCF Done:  E(RHF) =  -111.225449517     A.U. after    6 cycles
            NFock=  6  Conv=0.34D-08     -V/T= 2.0075
 KE= 1.103991568619D+02 PE=-3.068494790083D+02 EE= 6.305032244561D+01
 Leave Link  502 at Sun Dec 28 17:27:29 2025, MaxMem=   402653184 cpu:               4.7 elap:               0.2
 (Enter /cluster/software/Gaussian/g16_B.01/l701.exe)
 ... and contract with generalized density number  0.
 Compute integral first derivatives.
 Leave Link  701 at Sun Dec 28 17:27:29 2025, MaxMem=   402653184 cpu:               2.9 elap:               0.1
 (Enter /cluster/software/Gaussian/g16_B.01/l702.exe)
 L702 exits ... SP integral derivatives will be done elsewhere.
 Leave Link  702 at Sun Dec 28 17:27:30 2025, MaxMem=   402653184 cpu:               0.7 elap:               0.1
 (Enter /cluster/software/Gaussian/g16_B.01/l703.exe)
 Integral derivatives from FoFJK, PRISM(SPDF).
 Compute integral first derivatives, UseDBF=F ICtDFT=           0.
 Calling FoFJK, ICntrl=      2127 FMM=F ISym2X=1 I1Cent= 0 IOpClX= 0 NMat=1 NMatS=1 NMatT=0.
 FoFJK:  IHMeth= 1 ICntrl=    2127 DoSepK=F KAlg= 0 I1Cent=           0 FoldK=F
 IRaf=         0 NMat=       1 IRICut=       1 DoRegI=T DoRafI=F ISym2E= 1 IDoP0=0 IntGTp=1.
 FoFCou: FMM=F IPFlag=           0 FMFlag=      100000 FMFlg1=         800
         NFxFlg=           0 DoJE=F BraDBF=F KetDBF=F FulRan=T
         wScrn=  0.000000 ICntrl=      2127 IOpCl=  0 I1Cent=           0 NGrid=           0
         NMat0=    1 NMatS0=      1 NMatT0=    0 NMatD0=    1 NMtDS0=    0 NMtDT0=    0
 Petite list used in FoFCou.
 Leave Link  703 at Sun Dec 28 17:27:30 2025, MaxMem=   402653184 cpu:               3.1 elap:               0.1
 (Enter /cluster/software/Gaussian/g16_B.01/l716.exe)
 Dipole        = 0.00000000D+00 0.00000000D+00 4.89328328D-02
 ***** Axes restored to original set *****
 -------------------------------------------------------------------
 Center     Atomic                   Forces (Hartrees/Bohr)
 Number     Number              X              Y              Z
 -------------------------------------------------------------------
      1        8          -0.000000000   -0.000000000   -0.000001716
      2        6          -0.000000000   -0.000000000    0.000001716
 -------------------------------------------------------------------
 Cartesian Forces:  Max     0.000001716 RMS     0.000000991
 Leave Link  716 at Sun Dec 28 17:27:30 2025, MaxMem=   402653184 cpu:               0.8 elap:               0.1
 (Enter /cluster/software/Gaussian/g16_B.01/l103.exe)

 GradGradGradGradGradGradGradGradGradGradGradGradGradGradGradGradGradGrad
 Berny optimization.
 Using GEDIIS/GDIIS optimizer.
 Red2BG is reusing G-inverse.
 Internal  Forces:  Max     0.000001716 RMS     0.000001716
 Search for a local minimum.
 Step number   3 out of a maximum of   20
 All quantities printed in internal units (Hartrees-Bohrs-Radians)
 RMS Force = .17160D-05 SwitMx=.10000D-02 MixMth= 2
 Mixed Optimization -- En-DIIS/RFO-DIIS
 Update second derivatives using D2CorX and points    2    3
 DE= -8.11D-06 DEPred=-7.64D-06 R= 1.06D+00
 TightC=F SS=  1.41D+00  RLast= 3.22D-03 DXNew= 5.0454D-01 9.6516D-03
 Trust test= 1.06D+00 RLast= 3.22D-03 DXMaxT set to 3.00D-01
 The second derivative matrix:
                          R1
           R1           1.56547
 ITU=  1  1
 Use linear search instead of GDIIS.
     Eigenvalues ---    1.56547
 RFO step:  Lambda= 0.00000000D+00 EMin= 1.56546501D+00
 Quartic linear search produced a step of -0.00034.
 Iteration  1 RMS(Cart)=  0.00000077 RMS(Int)=  0.00000000
 ITry= 1 IFail=0 DXMaxC= 5.45D-07 DCOld= 1.00D+10 DXMaxT= 3.00D-01 DXLimC= 3.00D+00 Rises=F
 ClnCor:  largest displacement from symmetrization is 0.00D+00 for atom     0.
 Variable       Old X    -DE/DX   Delta X   Delta X   Delta X     New X
                                 (Linear)    (Quad)   (Total)
    R1        2.16464   0.00000   0.00000   0.00000   0.00000   2.16464
         Item               Value     Threshold  Converged?
 Maximum Force            0.000002     0.000002     NO 
 RMS     Force            0.000002     0.000001     NO 
 Maximum Displacement     0.000001     0.000006     YES
 RMS     Displacement     0.000001     0.000004     YES
 Predicted change in Energy=-9.404992D-13
 Lowest energy point so far.  Saving SCF results.
 GradGradGradGradGradGradGradGradGradGradGradGradGradGradGradGradGradGrad

 Leave Link  103 at Sun Dec 28 17:27:30 2025, MaxMem=   402653184 cpu:               0.6 elap:               0.1
 (Enter /cluster/software/Gaussian/g16_B.01/l202.exe)
                          Input orientation:                          
 ---------------------------------------------------------------------
 Center     Atomic      Atomic             Coordinates (Angstroms)
 Number     Number       Type             X           Y           Z
 ---------------------------------------------------------------------
      1          8           0        0.000000    0.000000   -0.008640
      2          6           0        0.000000    0.000000    1.136840
 ---------------------------------------------------------------------
 Stoichiometry    CO
 Framework group  C*V[C*(CO)]
 Deg. of freedom     1
 Full point group                 C*V     NOp   4
 RotChk:  IX=0 Diff= 0.00D+00
 Largest Abelian subgroup         C2V     NOp   4
 Largest concise Abelian subgroup C1      NOp   1
                         Standard orientation:                         
 ---------------------------------------------------------------------
 Center     Atomic      Atomic             Coordinates (Angstroms)
 Number     Number       Type             X           Y           Z
 ---------------------------------------------------------------------
      1          8           0        0.000000    0.000000    0.490920
      2          6           0        0.000000    0.000000   -0.654560
 ---------------------------------------------------------------------
 Rotational constants (GHZ):           0.0000000          56.1768824          56.1768824
 Leave Link  202 at Sun Dec 28 17:27:30 2025, MaxMem=   402653184 cpu:               0.3 elap:               0.0
 (Enter /cluster/software/Gaussian/g16_B.01/l301.exe)
 Standard basis: STO-3G (5D, 7F)
 Ernie: Thresh=  0.10000D-02 Tol=  0.10000D-05 Strict=F.
 There are     6 symmetry adapted cartesian basis functions of A1  symmetry.
 There are     0 symmetry adapted cartesian basis functions of A2  symmetry.
 There are     2 symmetry adapted cartesian basis functions of B1  symmetry.
 There are     2 symmetry adapted cartesian basis functions of B2  symmetry.
 There are     6 symmetry adapted basis functions of A1  symmetry.
 There are     0 symmetry adapted basis functions of A2  symmetry.
 There are     2 symmetry adapted basis functions of B1  symmetry.
 There are     2 symmetry adapted basis functions of B2  symmetry.
    10 basis functions,    30 primitive gaussians,    10 cartesian basis functions
     7 alpha electrons        7 beta electrons
       nuclear repulsion energy        22.1745390140 Hartrees.
 IExCor=    0 DFT=F Ex=HF Corr=None ExCW=0 ScaHFX=  1.000000
 ScaDFX=  1.000000  1.000000  1.000000  1.000000 ScalE2=  1.000000  1.000000
 IRadAn=      5 IRanWt=     -1 IRanGd=            0 ICorTp=0 IEmpDi=  4
 NAtoms=    2 NActive=    2 NUniq=    2 SFac= 1.00D+00 NAtFMM=   60 NAOKFM=F Big=F
 Integral buffers will be    131072 words long.
 Raffenetti 1 integral format.
 Two-electron integral symmetry is turned on.
 Leave Link  301 at Sun Dec 28 17:27:30 2025, MaxMem=   402653184 cpu:               1.8 elap:               0.1
 (Enter /cluster/software/Gaussian/g16_B.01/l302.exe)
 NPDir=0 NMtPBC=     1 NCelOv=     1 NCel=       1 NClECP=     1 NCelD=      1
         NCelK=      1 NCelE2=     1 NClLst=     1 CellRange=     0.0.
 One-electron integrals computed using PRISM.
 One-electron integral symmetry used in STVInt
 NBasis=    10 RedAO= T EigKep=  2.14D-01  NBF=     6     0     2     2
 NBsUse=    10 1.00D-06 EigRej= -1.00D+00 NBFU=     6     0     2     2
 Leave Link  302 at Sun Dec 28 17:27:30 2025, MaxMem=   402653184 cpu:               2.7 elap:               0.1
 (Enter /cluster/software/Gaussian/g16_B.01/l303.exe)
 DipDrv:  MaxL=1.
 Leave Link  303 at Sun Dec 28 17:27:31 2025, MaxMem=   402653184 cpu:               0.8 elap:               0.1
 (Enter /cluster/software/Gaussian/g16_B.01/l401.exe)
 Initial guess from the checkpoint file:  "inputFull_3q.chk"
 B after Tr=     0.000000    0.000000    0.000000
         Rot=    1.000000    0.000000    0.000000    0.000000 Ang=   0.00 deg.
 Guess basis will be translated and rotated to current coordinates.
 JPrj=2 DoOrth=T DoCkMO=T.
 Initial guess orbital symmetries:
       Occupied  (SG) (SG) (SG) (SG) (PI) (PI) (SG)
       Virtual   (PI) (PI) (SG)
 The electronic state of the initial guess is 1-SG.
 Leave Link  401 at Sun Dec 28 17:27:31 2025, MaxMem=   402653184 cpu:               3.0 elap:               0.1
 (Enter /cluster/software/Gaussian/g16_B.01/l502.exe)
 Keep R1 ints in memory in symmetry-blocked form, NReq=6408269.
 FoFCou: FMM=F IPFlag=           0 FMFlag=           0 FMFlg1=           0
         NFxFlg=           0 DoJE=F BraDBF=F KetDBF=F FulRan=T
         wScrn=  0.000000 ICntrl=       600 IOpCl=  0 I1Cent=           0 NGrid=           0
         NMat0=    1 NMatS0=     55 NMatT0=    0 NMatD0=    1 NMtDS0=    0 NMtDT0=    0
 Petite list used in FoFCou.
 Closed shell SCF:
 Using DIIS extrapolation, IDIIS=  1040.
 NGot=   402653184 LenX=   402650208 LenY=   402649326
 Requested convergence on RMS density matrix=1.00D-08 within 128 cycles.
 Requested convergence on MAX density matrix=1.00D-06.
 Requested convergence on             energy=1.00D-06.
 No special actions if energy rises.

 Cycle   1  Pass 1  IDiag  1:
 E= -111.225449517248    
 DIIS: error= 1.13D-07 at cycle   1 NSaved=   1.
 NSaved= 1 IEnMin= 1 EnMin= -111.225449517248     IErMin= 1 ErrMin= 1.13D-07
 ErrMax= 1.13D-07  0.00D+00 EMaxC= 1.00D-01 BMatC= 9.29D-14 BMatP= 9.29D-14
 IDIUse=1 WtCom= 1.00D+00 WtEn= 0.00D+00
 Coeff-Com:  0.100D+01
 Coeff:      0.100D+01
 Gap=     0.751 Goal=   None    Shift=    0.000
 RMSDP=4.07D-08 MaxDP=1.81D-07              OVMax= 0.00D+00

 Cycle   2  Pass 1  IDiag  1:
 E= -111.225449517248     Delta-E=       -0.000000000000 Rises=F Damp=F
 DIIS: error= 2.21D-08 at cycle   2 NSaved=   2.
 NSaved= 2 IEnMin= 2 EnMin= -111.225449517248     IErMin= 2 ErrMin= 2.21D-08
 ErrMax= 2.21D-08  0.00D+00 EMaxC= 1.00D-01 BMatC= 6.32D-15 BMatP= 9.29D-14
 IDIUse=1 WtCom= 1.00D+00 WtEn= 0.00D+00
 Coeff-Com: -0.867D-01 0.109D+01
 Coeff:     -0.867D-01 0.109D+01
 Gap=     0.751 Goal=   None    Shift=    0.000
 RMSDP=1.55D-08 MaxDP=5.91D-08 DE=-5.68D-14 OVMax= 0.00D+00

 Cycle   3  Pass 1  IDiag  1:
 E= -111.225449517248     Delta-E=       -0.000000000000 Rises=F Damp=F
 DIIS: error= 1.95D-08 at cycle   3 NSaved=   3.
 NSaved= 3 IEnMin= 3 EnMin= -111.225449517248     IErMin= 3 ErrMin= 1.95D-08
 ErrMax= 1.95D-08  0.00D+00 EMaxC= 1.00D-01 BMatC= 3.93D-15 BMatP= 6.32D-15
 IDIUse=1 WtCom= 1.00D+00 WtEn= 0.00D+00
 Coeff-Com: -0.124D+00 0.469D+00 0.655D+00
 Coeff:     -0.124D+00 0.469D+00 0.655D+00
 Gap=     0.751 Goal=   None    Shift=    0.000
 RMSDP=6.52D-09 MaxDP=3.26D-08 DE=-2.84D-14 OVMax= 0.00D+00

 SCF Done:  E(RHF) =  -111.225449517     A.U. after    3 cycles
            NFock=  3  Conv=0.65D-08     -V/T= 2.0075
 KE= 1.103991559646D+02 PE=-3.068494593180D+02 EE= 6.305031482214D+01
 Leave Link  502 at Sun Dec 28 17:27:31 2025, MaxMem=   402653184 cpu:               3.7 elap:               0.2
 (Enter /cluster/software/Gaussian/g16_B.01/l701.exe)
 ... and contract with generalized density number  0.
 Compute integral first derivatives.
 Leave Link  701 at Sun Dec 28 17:27:31 2025, MaxMem=   402653184 cpu:               2.8 elap:               0.1
 (Enter /cluster/software/Gaussian/g16_B.01/l702.exe)
 L702 exits ... SP integral derivatives will be done elsewhere.
 Leave Link  702 at Sun Dec 28 17:27:31 2025, MaxMem=   402653184 cpu:               0.6 elap:               0.1
 (Enter /cluster/software/Gaussian/g16_B.01/l703.exe)
 Integral derivatives from FoFJK, PRISM(SPDF).
 Compute integral first derivatives, UseDBF=F ICtDFT=           0.
 Calling FoFJK, ICntrl=      2127 FMM=F ISym2X=1 I1Cent= 0 IOpClX= 0 NMat=1 NMatS=1 NMatT=0.
 FoFJK:  IHMeth= 1 ICntrl=    2127 DoSepK=F KAlg= 0 I1Cent=           0 FoldK=F
 IRaf=         0 NMat=       1 IRICut=       1 DoRegI=T DoRafI=F ISym2E= 1 IDoP0=0 IntGTp=1.
 FoFCou: FMM=F IPFlag=           0 FMFlag=      100000 FMFlg1=         800
         NFxFlg=           0 DoJE=F BraDBF=F KetDBF=F FulRan=T
         wScrn=  0.000000 ICntrl=      2127 IOpCl=  0 I1Cent=           0 NGrid=           0
         NMat0=    1 NMatS0=      1 NMatT0=    0 NMatD0=    1 NMtDS0=    0 NMtDT0=    0
 Petite list used in FoFCou.
 Leave Link  703 at Sun Dec 28 17:27:32 2025, MaxMem=   402653184 cpu:               3.1 elap:               0.1
 (Enter /cluster/software/Gaussian/g16_B.01/l716.exe)
 Dipole        = 0.00000000D+00 0.00000000D+00 4.89322517D-02
 ***** Axes restored to original set *****
 -------------------------------------------------------------------
 Center     Atomic                   Forces (Hartrees/Bohr)
 Number     Number              X              Y              Z
 -------------------------------------------------------------------
      1        8          -0.000000000   -0.000000000    0.000000007
      2        6          -0.000000000   -0.000000000   -0.000000007
 -------------------------------------------------------------------
 Cartesian Forces:  Max     0.000000007 RMS     0.000000004
 Leave Link  716 at Sun Dec 28 17:27:32 2025, MaxMem=   402653184 cpu:               0.8 elap:               0.1
 (Enter /cluster/software/Gaussian/g16_B.01/l103.exe)

 GradGradGradGradGradGradGradGradGradGradGradGradGradGradGradGradGradGrad
 Berny optimization.
 Using GEDIIS/GDIIS optimizer.
 Red2BG is reusing G-inverse.
 Internal  Forces:  Max     0.000000007 RMS     0.000000007
 Search for a local minimum.
 Step number   4 out of a maximum of   20
 All quantities printed in internal units (Hartrees-Bohrs-Radians)
 RMS Force = .68903D-08 SwitMx=.10000D-02 MixMth= 2
 Mixed Optimization -- En-DIIS/RFO-DIIS
 Swapping is turned off.
 Update second derivatives using D2CorX and points    4
 Trust test= 0.00D+00 RLast= 1.09D-06 DXMaxT set to 3.00D-01
 The second derivative matrix:
                          R1
           R1           1.56547
 ITU=  0  1
     Eigenvalues ---    1.56547
 En-DIIS/RFO-DIIS/Sim-DIIS IScMMF=       -3 using points:     4    3
 RFO step:  Lambda= 0.00000000D+00.
 NNeg= 0 NGDIIS= 2 SimSw=  2.50D-03 Rises=F DC= -7.96D-13 SmlDif=  1.00D-05
 NRisDI= 0 DoIntr=F SqrtH=F CThrHd= 10.0 CDAdj=  3.0
 RMS Error=  0.4401466966D-08 NUsed= 2 OKEnD=F EnDIS=F
 InvSVX:  RCond= 1.36D-12 Info=           0 Equed=N FErr=  8.92D-16 BErr=  8.21D-17
 DIIS inversion failure, remove point   2.
 Use linear search instead of GDIIS.
 RFO step:  Lambda= 0.00000000D+00 EMin= 1.56546501D+00
 Skip linear search -- no minimum in search direction.
 Iteration  1 RMS(Cart)=  0.00000000 RMS(Int)=  0.00000000
 ITry= 1 IFail=0 DXMaxC= 2.20D-09 DCOld= 1.00D+10 DXMaxT= 3.00D-01 DXLimC= 3.00D+00 Rises=F
 ClnCor:  largest displacement from symmetrization is 0.00D+00 for atom     0.
 Variable       Old X    -DE/DX   Delta X   Delta X   Delta X     New X
                                 (Linear)    (Quad)   (Total)
    R1        2.16464  -0.00000   0.00000  -0.00000  -0.00000   2.16464
         Item               Value     Threshold  Converged?
 Maximum Force            0.000000     0.000002     YES
 RMS     Force            0.000000     0.000001     YES
 Maximum Displacement     0.000000     0.000006     YES
 RMS     Displacement     0.000000     0.000004     YES
 Predicted change in Energy=-1.516381D-17
 Optimization completed.
    -- Stationary point found.
                           ----------------------------
                           !   Optimized Parameters   !
                           ! (Angstroms and Degrees)  !
 --------------------------                            --------------------------
 ! Name  Definition              Value          Derivative Info.                !
 --------------------------------------------------------------------------------
 ! R1    R(1,2)                  1.1455         -DE/DX =    0.0                 !
 --------------------------------------------------------------------------------
 Lowest energy point so far.  Saving SCF results.
 Largest change from initial coordinates is atom    2       0.010 Angstoms.
 GradGradGradGradGradGradGradGradGradGradGradGradGradGradGradGradGradGrad

 Leave Link  103 at Sun Dec 28 17:27:32 2025, MaxMem=   402653184 cpu:               1.0 elap:               0.1
 (Enter /cluster/software/Gaussian/g16_B.01/l202.exe)
                          Input orientation:                          
 ---------------------------------------------------------------------
 Center     Atomic      Atomic             Coordinates (Angstroms)
 Number     Number       Type             X           Y           Z
 ---------------------------------------------------------------------
      1          8           0        0.000000    0.000000   -0.008640
      2          6           0        0.000000    0.000000    1.136840
 ---------------------------------------------------------------------
 Stoichiometry    CO
 Framework group  C*V[C*(CO)]
 Deg. of freedom     1
 Full point group                 C*V     NOp   4
 RotChk:  IX=0 Diff= 0.00D+00
 Largest Abelian subgroup         C2V     NOp   4
 Largest concise Abelian subgroup C1      NOp   1
                         Standard orientation:                         
 ---------------------------------------------------------------------
 Center     Atomic      Atomic             Coordinates (Angstroms)
 Number     Number       Type             X           Y           Z
 ---------------------------------------------------------------------
      1          8           0        0.000000    0.000000    0.490920
      2          6           0        0.000000    0.000000   -0.654560
 ---------------------------------------------------------------------
 Rotational constants (GHZ):           0.0000000          56.1768824          56.1768824
 Leave Link  202 at Sun Dec 28 17:27:32 2025, MaxMem=   402653184 cpu:               0.3 elap:               0.0
 (Enter /cluster/software/Gaussian/g16_B.01/l601.exe)
 Copying SCF densities to generalized density rwf, IOpCl= 0 IROHF=0.

 **********************************************************************

            Population analysis using the SCF Density.

 **********************************************************************

 Orbital symmetries:
       Occupied  (SG) (SG) (SG) (SG) (PI) (PI) (SG)
       Virtual   (PI) (PI) (SG)
 The electronic state is 1-SG.
 Alpha  occ. eigenvalues --  -20.41557 -11.09219  -1.44527  -0.69683  -0.53992
 Alpha  occ. eigenvalues --   -0.53992  -0.44513
 Alpha virt. eigenvalues --    0.30614   0.30614   1.00910
          Condensed to atoms (all electrons):
               1          2
     1  O    7.676076   0.522859
     2  C    0.522859   5.278206
 Mulliken charges:
               1
     1  O   -0.198935
     2  C    0.198935
 Sum of Mulliken charges =  -0.00000
 Mulliken charges with hydrogens summed into heavy atoms:
               1
     1  O   -0.198935
     2  C    0.198935
 Electronic spatial extent (au):  <R**2>=             37.7217
 Charge=             -0.0000 electrons
 Dipole moment (field-independent basis, Debye):
    X=              0.0000    Y=              0.0000    Z=              0.1244  Tot=              0.1244
 Quadrupole moment (field-independent basis, Debye-Ang):
   XX=             -8.7042   YY=             -8.7042   ZZ=            -11.7203
   XY=              0.0000   XZ=              0.0000   YZ=              0.0000
 Traceless Quadrupole moment (field-independent basis, Debye-Ang):
   XX=              1.0053   YY=              1.0053   ZZ=             -2.0107
   XY=              0.0000   XZ=              0.0000   YZ=              0.0000
 Octapole moment (field-independent basis, Debye-Ang**2):
  XXX=              0.0000  YYY=              0.0000  ZZZ=              5.7995  XYY=              0.0000
  XXY=              0.0000  XXZ=              0.9952  XZZ=              0.0000  YZZ=              0.0000
  YYZ=              0.9952  XYZ=              0.0000
 Hexadecapole moment (field-independent basis, Debye-Ang**3):
 XXXX=             -5.3777 YYYY=             -5.3777 ZZZZ=            -30.2585 XXXY=              0.0000
 XXXZ=              0.0000 YYYX=              0.0000 YYYZ=              0.0000 ZZZX=              0.0000
 ZZZY=              0.0000 XXYY=             -1.7926 XXZZ=             -5.2294 YYZZ=             -5.2294
 XXYZ=              0.0000 YYXZ=              0.0000 ZZXY=              0.0000
 N-N= 2.217453901400D+01 E-N=-3.068494591573D+02  KE= 1.103991559646D+02
 Symmetry A1   KE= 1.024810950749D+02
 Symmetry A2   KE= 0.000000000000D+00
 Symmetry B1   KE= 3.959030444873D+00
 Symmetry B2   KE= 3.959030444873D+00
 No NMR shielding tensors so no spin-rotation constants.
 Leave Link  601 at Sun Dec 28 17:27:32 2025, MaxMem=   402653184 cpu:               2.6 elap:               0.1
 (Enter /cluster/software/Gaussian/g16_B.01/l9999.exe)
 1\1\GINC-C5-14\FOpt\RHF\STO-3G\C1O1\VLE014\28-Dec-2025\0\\#P HF/STO-3G
  Opt=VeryTight Int=UltraFine SCF=VeryTight\\Title\\0,1\O,0.,0.,-0.0086
 403422\C,0.,0.,1.1368403422\\Version=ES64L-G16RevB.01\State=1-SG\HF=-1
 11.2254495\RMSD=6.521e-09\RMSF=3.978e-09\Dipole=0.,0.,-0.0489323\Quadr
 upole=0.7474474,0.7474474,-1.4948947,0.,0.,0.\PG=C*V [C*(C1O1)]\\@


 THEREFORE SHALL EVIL COME UPON THEE...
 THOU SHALT NOT KNOW FROM WHENCE IT RISETH...
 AND MISCHIEF SHALL FALL UPON THEE...
 THOU SHALT NOT BE ABLE TO PUT IT OFF...
 AND DESOLATION SHALL COME UPON THEE SUDDENLY...
 WHICH THOU SHALT NOT KNOW...

                                         ISAIAH 47.11
 Job cpu time:       0 days  0 hours  1 minutes 40.4 seconds.
 Elapsed time:       0 days  0 hours  0 minutes  5.2 seconds.
 File lengths (MBytes):  RWF=     10 Int=      0 D2E=      0 Chk=      1 Scr=      1
 Normal termination of Gaussian 16 at Sun Dec 28 17:27:32 2025.
 Initial command:
 /cluster/software/Gaussian/g16_B.01/l1.exe "/cluster/work/users/vle014/16518593/Gau-1379845.inp" -scrdir="/cluster/work/users/vle014/16518593/"
 Entering Link 1 = /cluster/software/Gaussian/g16_B.01/l1.exe PID=   1381431.
  
 Copyright (c) 1988-2017, Gaussian, Inc.  All Rights Reserved.
  
 This is part of the Gaussian(R) 16 program.  It is based on
 the Gaussian(R) 09 system (copyright 2009, Gaussian, Inc.),
 the Gaussian(R) 03 system (copyright 2003, Gaussian, Inc.),
 the Gaussian(R) 98 system (copyright 1998, Gaussian, Inc.),
 the Gaussian(R) 94 system (copyright 1995, Gaussian, Inc.),
 the Gaussian 92(TM) system (copyright 1992, Gaussian, Inc.),
 the Gaussian 90(TM) system (copyright 1990, Gaussian, Inc.),
 the Gaussian 88(TM) system (copyright 1988, Gaussian, Inc.),
 the Gaussian 86(TM) system (copyright 1986, Carnegie Mellon
 University), and the Gaussian 82(TM) system (copyright 1983,
 Carnegie Mellon University). Gaussian is a federally registered
 trademark of Gaussian, Inc.
  
 This software contains proprietary and confidential information,
 including trade secrets, belonging to Gaussian, Inc.
  
 This software is provided under written license and may be
 used, copied, transmitted, or stored only in accord with that
 written license.
  
 The following legend is applicable only to US Government
 contracts under FAR:
  
                    RESTRICTED RIGHTS LEGEND
  
 Use, reproduction and disclosure by the US Government is
 subject to restrictions as set forth in subparagraphs (a)
 and (c) of the Commercial Computer Software - Restricted
 Rights clause in FAR 52.227-19.
  
 Gaussian, Inc.
 340 Quinnipiac St., Bldg. 40, Wallingford CT 06492
  
  
 ---------------------------------------------------------------
 Warning -- This program may not be used in any manner that
 competes with the business of Gaussian, Inc. or will provide
 assistance to any competitor of Gaussian, Inc.  The licensee
 of this program is prohibited from giving any competitor of
 Gaussian, Inc. access to this program.  By using this program,
 the user acknowledges that Gaussian, Inc. is engaged in the
 business of creating and licensing software in the field of
 computational chemistry and represents and warrants to the
 licensee that it is not a competitor of Gaussian, Inc. and that
 it will not use this program in any manner prohibited above.
 ---------------------------------------------------------------
  

 Cite this work as:
 Gaussian 16, Revision B.01,
 M. J. Frisch, G. W. Trucks, H. B. Schlegel, G. E. Scuseria, 
 M. A. Robb, J. R. Cheeseman, G. Scalmani, V. Barone, 
 G. A. Petersson, H. Nakatsuji, X. Li, M. Caricato, A. V. Marenich, 
 J. Bloino, B. G. Janesko, R. Gomperts, B. Mennucci, H. P. Hratchian, 
 J. V. Ortiz, A. F. Izmaylov, J. L. Sonnenberg, D. Williams-Young, 
 F. Ding, F. Lipparini, F. Egidi, J. Goings, B. Peng, A. Petrone, 
 T. Henderson, D. Ranasinghe, V. G. Zakrzewski, J. Gao, N. Rega, 
 G. Zheng, W. Liang, M. Hada, M. Ehara, K. Toyota, R. Fukuda, 
 J. Hasegawa, M. Ishida, T. Nakajima, Y. Honda, O. Kitao, H. Nakai, 
 T. Vreven, K. Throssell, J. A. Montgomery, Jr., J. E. Peralta, 
 F. Ogliaro, M. J. Bearpark, J. J. Heyd, E. N. Brothers, K. N. Kudin, 
 V. N. Staroverov, T. A. Keith, R. Kobayashi, J. Normand, 
 K. Raghavachari, A. P. Rendell, J. C. Burant, S. S. Iyengar, 
 J. Tomasi, M. Cossi, J. M. Millam, M. Klene, C. Adamo, R. Cammi, 
 J. W. Ochterski, R. L. Martin, K. Morokuma, O. Farkas, 
 J. B. Foresman, and D. J. Fox, Gaussian, Inc., Wallingford CT, 2016.
 
 ******************************************
 Gaussian 16:  ES64L-G16RevB.01 20-Dec-2017
                28-Dec-2025 
 ******************************************
 %NProcShared=32
 Will use up to   32 processors via shared memory.
 %LindaWorkers=c5-14-ib
 %chk=inputFull_3q
 %mem=3GB
 SetLPE:    new flags="-opt 'Tsnet.Node.lindarsharg: ssh'  -nodelist 'c5-14-ib.saga' -env GAUSS_MDEF=402653184 -env GAUSS_EXEDIR="/cluster/software/Gaussian/g16_B.01""
 Will use up to    1 processors via Linda.
 ----------------------------------------------------------------------
 #P HF/STO-3G Freq=(Anharmonic,raman,hpmodes,ReadAnharm) Int=UltraFine 
 SCF=VeryTight iop(7/33=1) IOp(10/96=2) Guess=Read Geom=AllCheck
 ----------------------------------------------------------------------
 1/10=4,29=7,30=1,38=21,80=1/1,6,3;
 2/12=2,40=1/2;
 3/6=3,11=9,14=-4,25=1,30=1,71=2,75=-5,116=-2,140=1/1,2,3;
 4/5=1/1;
 5/5=2,17=3,38=6,98=1/2;
 8/6=4,10=90,11=11/1;
 10/13=10,15=4,60=-2,96=2/2;
 11/6=3,8=1,9=11,15=111,16=1/1,2,10;
 10/6=1,60=-2,96=2/2;
 6/7=2,8=2,9=2,10=2,28=1/1;
 7/8=10,10=1,25=1,33=1,71=2,72=1/1,2,3,16;
 1/38=20,80=1/6(3);
 7/8=11,25=202,33=1,44=-1,71=1,72=1,92=10/16,17;
 1/10=4,30=1,38=20,80=1/3;
 99//99;
 3/6=3,11=9,14=-2,25=1,30=1,71=2,75=-5,140=1/1,2,3;
 4/5=5,16=3,69=1/1;
 5/5=2,17=3,38=5,98=1/2;
 8/6=4,10=90,11=11/1;
 10/13=10,15=4,60=-2,96=2/2;
 11/6=3,8=1,9=11,15=111,16=1/1,2,10;
 10/6=1,60=-2,96=2/2;
 6/7=2,8=2,9=2,10=2,28=1/1;
 7/7=1,8=10,10=1,25=1,33=1,71=1,72=1/1,2,3,16;
 1/38=20,80=1/6(-9);
 7/8=11,25=202,33=1,44=-1,71=1,72=1,92=10/16,17;
 1/10=4,30=1,38=20,80=1/3;
 99//99;
 Leave Link    1 at Sun Dec 28 17:27:33 2025, MaxMem=   402653184 cpu:               2.8 elap:               0.1
 (Enter /cluster/software/Gaussian/g16_B.01/l101.exe)
 Structure from the checkpoint file:  "inputFull_3q.chk"
 -----
 Title
 -----
 Charge =  0 Multiplicity = 1
 Redundant internal coordinates found in file.  (old form).
 O,0,0.,0.,-0.0086403422
 C,0,0.,0.,1.1368403422
 Recover connectivity data from disk.
 ITRead=  0  0
 MicOpt= -1 -1
 NAtoms=      2 NQM=        2 NQMF=       0 NMMI=      0 NMMIF=      0
                NMic=       0 NMicF=      0.
                    Isotopes and Nuclear Properties:
 (Nuclear quadrupole moments (NQMom) in fm**2, nuclear magnetic moments (NMagM)
  in nuclear magnetons)

  Atom         1           2
 IAtWgt=          16          12
 AtmWgt=  15.9949146  12.0000000
 NucSpn=           0           0
 AtZEff=   5.6000000   3.6000000
 NQMom=    0.0000000   0.0000000
 NMagM=    0.0000000   0.0000000
 AtZNuc=   8.0000000   6.0000000
 Leave Link  101 at Sun Dec 28 17:27:33 2025, MaxMem=   402653184 cpu:               4.7 elap:               0.2
 (Enter /cluster/software/Gaussian/g16_B.01/l106.exe)
 Numerical evaluation of third derivatives.
 Nuclear step= 0.010000 Angstroms, electric field step= 0.000333 atomic units, NStep=1.
 Leave Link  106 at Sun Dec 28 17:27:33 2025, MaxMem=   402653184 cpu:               0.1 elap:               0.0
 (Enter /cluster/software/Gaussian/g16_B.01/l103.exe)

 GradGradGradGradGradGradGradGradGradGradGradGradGradGradGradGradGradGrad
 Berny optimization.
 Initialization pass.
                           ----------------------------
                           !    Initial Parameters    !
                           ! (Angstroms and Degrees)  !
 --------------------------                            --------------------------
 ! Name  Definition              Value          Derivative Info.                !
 --------------------------------------------------------------------------------
 ! R1    R(1,2)                  1.1455         calculate D2E/DX2 analytically  !
 --------------------------------------------------------------------------------
 Trust Radius=3.00D-01 FncErr=1.00D-07 GrdErr=1.00D-07 EigMax=2.50D+02 EigMin=1.00D-04
 Number of steps in this run=      2 maximum allowed number of steps=      2.
 GradGradGradGradGradGradGradGradGradGradGradGradGradGradGradGradGradGrad

 Leave Link  103 at Sun Dec 28 17:27:33 2025, MaxMem=   402653184 cpu:               0.3 elap:               0.0
 (Enter /cluster/software/Gaussian/g16_B.01/l202.exe)
                          Input orientation:                          
 ---------------------------------------------------------------------
 Center     Atomic      Atomic             Coordinates (Angstroms)
 Number     Number       Type             X           Y           Z
 ---------------------------------------------------------------------
      1          8           0        0.000000    0.000000   -0.008640
      2          6           0        0.000000    0.000000    1.136840
 ---------------------------------------------------------------------
 Stoichiometry    CO
 Framework group  C*V[C*(CO)]
 Deg. of freedom     1
 Full point group                 C*V     NOp   4
 RotChk:  IX=0 Diff= 0.00D+00
 Largest Abelian subgroup         C2V     NOp   4
 Largest concise Abelian subgroup C1      NOp   1
                         Standard orientation:                         
 ---------------------------------------------------------------------
 Center     Atomic      Atomic             Coordinates (Angstroms)
 Number     Number       Type             X           Y           Z
 ---------------------------------------------------------------------
      1          8           0        0.000000    0.000000    0.490920
      2          6           0        0.000000    0.000000   -0.654560
 ---------------------------------------------------------------------
 Rotational constants (GHZ):           0.0000000          56.1768824          56.1768824
 Leave Link  202 at Sun Dec 28 17:27:33 2025, MaxMem=   402653184 cpu:               0.2 elap:               0.0
 (Enter /cluster/software/Gaussian/g16_B.01/l301.exe)
 Standard basis: STO-3G (5D, 7F)
 Ernie: Thresh=  0.10000D-02 Tol=  0.10000D-05 Strict=F.
 There are     6 symmetry adapted cartesian basis functions of A1  symmetry.
 There are     0 symmetry adapted cartesian basis functions of A2  symmetry.
 There are     2 symmetry adapted cartesian basis functions of B1  symmetry.
 There are     2 symmetry adapted cartesian basis functions of B2  symmetry.
 There are     6 symmetry adapted basis functions of A1  symmetry.
 There are     0 symmetry adapted basis functions of A2  symmetry.
 There are     2 symmetry adapted basis functions of B1  symmetry.
 There are     2 symmetry adapted basis functions of B2  symmetry.
    10 basis functions,    30 primitive gaussians,    10 cartesian basis functions
     7 alpha electrons        7 beta electrons
       nuclear repulsion energy        22.1745390140 Hartrees.
 IExCor=    0 DFT=F Ex=HF Corr=None ExCW=0 ScaHFX=  1.000000
 ScaDFX=  1.000000  1.000000  1.000000  1.000000 ScalE2=  1.000000  1.000000
 IRadAn=      5 IRanWt=     -1 IRanGd=            0 ICorTp=0 IEmpDi=  4
 NAtoms=    2 NActive=    2 NUniq=    2 SFac= 1.00D+00 NAtFMM=   60 NAOKFM=F Big=F
 Integral buffers will be    131072 words long.
 Raffenetti 1 integral format.
 Two-electron integral symmetry is turned on.
 Leave Link  301 at Sun Dec 28 17:27:33 2025, MaxMem=   402653184 cpu:               1.8 elap:               0.1
 (Enter /cluster/software/Gaussian/g16_B.01/l302.exe)
 NPDir=0 NMtPBC=     1 NCelOv=     1 NCel=       1 NClECP=     1 NCelD=      1
         NCelK=      1 NCelE2=     1 NClLst=     1 CellRange=     0.0.
 One-electron integrals computed using PRISM.
 One-electron integral symmetry used in STVInt
 NBasis=    10 RedAO= T EigKep=  2.14D-01  NBF=     6     0     2     2
 NBsUse=    10 1.00D-06 EigRej= -1.00D+00 NBFU=     6     0     2     2
 Leave Link  302 at Sun Dec 28 17:27:33 2025, MaxMem=   402653184 cpu:               2.6 elap:               0.1
 (Enter /cluster/software/Gaussian/g16_B.01/l303.exe)
 DipDrv:  MaxL=1.
 Leave Link  303 at Sun Dec 28 17:27:34 2025, MaxMem=   402653184 cpu:               0.7 elap:               0.1
 (Enter /cluster/software/Gaussian/g16_B.01/l401.exe)
 Initial guess from the checkpoint file:  "inputFull_3q.chk"
 B after Tr=     0.000000    0.000000    0.000000
         Rot=    1.000000    0.000000    0.000000    0.000000 Ang=   0.00 deg.
 Guess basis will be translated and rotated to current coordinates.
 JPrj=2 DoOrth=T DoCkMO=T.
 Initial guess orbital symmetries:
       Occupied  (SG) (SG) (SG) (SG) (PI) (PI) (SG)
       Virtual   (PI) (PI) (SG)
 The electronic state of the initial guess is 1-SG.
 Leave Link  401 at Sun Dec 28 17:27:34 2025, MaxMem=   402653184 cpu:               3.0 elap:               0.1
 (Enter /cluster/software/Gaussian/g16_B.01/l502.exe)
 Keep R1 ints in memory in symmetry-blocked form, NReq=6408269.
 FoFCou: FMM=F IPFlag=           0 FMFlag=           0 FMFlg1=           0
         NFxFlg=           0 DoJE=F BraDBF=F KetDBF=F FulRan=T
         wScrn=  0.000000 ICntrl=       600 IOpCl=  0 I1Cent=           0 NGrid=           0
         NMat0=    1 NMatS0=     55 NMatT0=    0 NMatD0=    1 NMtDS0=    0 NMtDT0=    0
 Petite list used in FoFCou.
 Closed shell SCF:
 Using DIIS extrapolation, IDIIS=  1040.
 NGot=   402653184 LenX=   402650208 LenY=   402649326
 Requested convergence on RMS density matrix=1.00D-08 within 128 cycles.
 Requested convergence on MAX density matrix=1.00D-06.
 Requested convergence on             energy=1.00D-06.
 No special actions if energy rises.

 Cycle   1  Pass 1  IDiag  1:
 E= -111.225449517248    
 DIIS: error= 4.01D-09 at cycle   1 NSaved=   1.
 NSaved= 1 IEnMin= 1 EnMin= -111.225449517248     IErMin= 1 ErrMin= 4.01D-09
 ErrMax= 4.01D-09  0.00D+00 EMaxC= 1.00D-01 BMatC= 1.30D-16 BMatP= 1.30D-16
 IDIUse=1 WtCom= 1.00D+00 WtEn= 0.00D+00
 Coeff-Com:  0.100D+01
 Coeff:      0.100D+01
 Gap=     0.751 Goal=   None    Shift=    0.000
 RMSDP=1.96D-09 MaxDP=9.34D-09              OVMax= 0.00D+00

 SCF Done:  E(RHF) =  -111.225449517     A.U. after    1 cycles
            NFock=  1  Conv=0.20D-08     -V/T= 2.0075
 KE= 1.103991559670D+02 PE=-3.068494591598D+02 EE= 6.305031466147D+01
 Leave Link  502 at Sun Dec 28 17:27:34 2025, MaxMem=   402653184 cpu:               3.4 elap:               0.1
 (Enter /cluster/software/Gaussian/g16_B.01/l801.exe)
 Range of M.O.s used for correlation:     1    10
 NBasis=    10 NAE=     7 NBE=     7 NFC=     0 NFV=     0
 NROrb=     10 NOA=     7 NOB=     7 NVA=     3 NVB=     3
 Leave Link  801 at Sun Dec 28 17:27:34 2025, MaxMem=   402653184 cpu:               1.0 elap:               0.1
 (Enter /cluster/software/Gaussian/g16_B.01/l1002.exe)
 Minotr:  Closed shell wavefunction.
          Direct CPHF calculation.
          Differentiating once with respect to electric field.
                with respect to dipole field.
          Electric field/nuclear overlap derivatives assumed to be zero.
          Using symmetry in CPHF.
          Requested convergence is 1.0D-08 RMS, and 1.0D-07 maximum.
          Secondary convergence is 1.0D-12 RMS, and 1.0D-12 maximum.
          NewPWx=F KeepS1=T KeepF1=T KeepIn=T MapXYZ=F SortEE=F KeepMc=T.
 Keep R1 ints in memory in symmetry-blocked form, NReq=6408631.
 FoFCou: FMM=F IPFlag=           0 FMFlag=           0 FMFlg1=           0
         NFxFlg=           0 DoJE=F BraDBF=F KetDBF=F FulRan=T
         wScrn=  0.000000 ICntrl=       600 IOpCl=  0 I1Cent=           0 NGrid=           0
         NMat0=    1 NMatS0=     55 NMatT0=    0 NMatD0=    1 NMtDS0=    0 NMtDT0=    0
 Petite list used in FoFCou.
          MDV=     402653184 using IRadAn=       4.
          Solving linear equations simultaneously, MaxMat=       0.
          There are     3 degrees of freedom in the 1st order CPHF.  IDoFFX=0 NUNeed=     3.
      3 vectors produced by pass  0 Test12= 7.00D-16 3.33D-08 XBig12= 3.07D+00 1.17D+00.
 AX will form     3 AO Fock derivatives at one time.
      3 vectors produced by pass  1 Test12= 7.00D-16 3.33D-08 XBig12= 4.32D-02 1.77D-01.
      3 vectors produced by pass  2 Test12= 7.00D-16 3.33D-08 XBig12= 6.57D-04 2.18D-02.
      3 vectors produced by pass  3 Test12= 7.00D-16 3.33D-08 XBig12= 4.41D-07 4.97D-04.
      3 vectors produced by pass  4 Test12= 7.00D-16 3.33D-08 XBig12= 5.88D-10 1.86D-05.
      3 vectors produced by pass  5 Test12= 7.00D-16 3.33D-08 XBig12= 7.47D-13 6.72D-07.
 InvSVY:  IOpt=1 It=  1 EMax= 1.11D-16
 Solved reduced A of dimension    18 with     3 vectors.
 End of Minotr F.D. properties file   721 does not exist.
 End of Minotr F.D. properties file   722 does not exist.
 End of Minotr F.D. properties file   788 does not exist.
 Leave Link 1002 at Sun Dec 28 17:27:34 2025, MaxMem=   402653184 cpu:               3.6 elap:               0.2
 (Enter /cluster/software/Gaussian/g16_B.01/l1101.exe)
 Using compressed storage, NAtomX=     2.
 Will process      3 centers per pass.
 Leave Link 1101 at Sun Dec 28 17:27:35 2025, MaxMem=   402653184 cpu:               2.9 elap:               0.1
 (Enter /cluster/software/Gaussian/g16_B.01/l1102.exe)
 Symmetrizing basis deriv contribution to polar:
 IMax=3 JMax=2 DiffMx= 0.00D+00
 Leave Link 1102 at Sun Dec 28 17:27:35 2025, MaxMem=   402653184 cpu:               0.8 elap:               0.1
 (Enter /cluster/software/Gaussian/g16_B.01/l1110.exe)
 Forming Gx(P) for the SCF density, NAtomX=     2.
 Integral derivatives from FoFJK, PRISM(SPDF).
 Do as many integral derivatives as possible in FoFJK.
 G2DrvN: MDV=     402652900.
 G2DrvN: will do     3 centers at a time, making    1 passes.
 PxScal for G2LodP:  IOpCl= 0 ISclPx=1 IMOff=     1 NMtTot=     4 NTT=      55 ScalPx= 1.09D+00
 Calling FoFCou, ICntrl=  3107 FMM=F I1Cent=   0 AccDes= 0.00D+00.
 FoFJK:  IHMeth= 1 ICntrl=    3107 DoSepK=F KAlg= 0 I1Cent=           0 FoldK=F
 IRaf=         0 NMat=       1 IRICut=       1 DoRegI=T DoRafI=F ISym2E= 1 IDoP0=0 IntGTp=1.
 FoFCou: FMM=F IPFlag=           0 FMFlag=      100000 FMFlg1=           0
         NFxFlg=           0 DoJE=F BraDBF=F KetDBF=F FulRan=T
         wScrn=  0.000000 ICntrl=      3107 IOpCl=  0 I1Cent=           0 NGrid=           0
         NMat0=    1 NMatS0=      1 NMatT0=    0 NMatD0=    4 NMtDS0=    3 NMtDT0=    0
 Petite list used in FoFCou.
 End of G2Drv F.D. properties file   721 does not exist.
 End of G2Drv F.D. properties file   722 does not exist.
 End of G2Drv F.D. properties file   788 does not exist.
 Leave Link 1110 at Sun Dec 28 17:27:35 2025, MaxMem=   402653184 cpu:               3.4 elap:               0.2
 (Enter /cluster/software/Gaussian/g16_B.01/l1002.exe)
 Minotr:  Closed shell wavefunction.
          IDoAtm=11
          Direct CPHF calculation.
          Differentiating once with respect to electric field.
                with respect to dipole field.
          Differentiating once with respect to nuclear coordinates.
          Using symmetry in CPHF.
          Requested convergence is 1.0D-08 RMS, and 1.0D-07 maximum.
          Secondary convergence is 1.0D-12 RMS, and 1.0D-12 maximum.
          NewPWx=T KeepS1=F KeepF1=F KeepIn=T MapXYZ=F SortEE=F KeepMc=T.
 Keep R1 ints in memory in symmetry-blocked form, NReq=6408677.
 FoFCou: FMM=F IPFlag=           0 FMFlag=           0 FMFlg1=           0
         NFxFlg=           0 DoJE=F BraDBF=F KetDBF=F FulRan=T
         wScrn=  0.000000 ICntrl=       600 IOpCl=  0 I1Cent=           0 NGrid=           0
         NMat0=    1 NMatS0=     55 NMatT0=    0 NMatD0=    1 NMtDS0=    0 NMtDT0=    0
 Petite list used in FoFCou.
          MDV=     402653184 using IRadAn=       4.
          Solving linear equations simultaneously, MaxMat=       0.
          There are     9 degrees of freedom in the 1st order CPHF.  IDoFFX=5 NUNeed=     9.
 Will reuse    3 saved solutions.
      3 vectors produced by pass  0 Test12= 2.33D-16 1.11D-08 XBig12= 5.41D-02 1.51D-01.
 AX will form     3 AO Fock derivatives at one time.
      3 vectors produced by pass  1 Test12= 2.33D-16 1.11D-08 XBig12= 4.96D-03 4.94D-02.
      3 vectors produced by pass  2 Test12= 2.33D-16 1.11D-08 XBig12= 1.97D-04 1.36D-02.
      3 vectors produced by pass  3 Test12= 2.33D-16 1.11D-08 XBig12= 3.21D-07 5.27D-04.
      3 vectors produced by pass  4 Test12= 2.33D-16 1.11D-08 XBig12= 1.08D-10 8.99D-06.
      3 vectors produced by pass  5 Test12= 2.33D-16 1.11D-08 XBig12= 2.18D-13 4.38D-07.
 InvSVY:  IOpt=1 It=  1 EMax= 2.22D-16
 Solved reduced A of dimension    18 with     3 vectors.
 FullF1:  Do perturbations      1 to       3.
 Isotropic polarizability for W=    0.000000        4.50 Bohr**3.
 FullF1:  Do perturbations      1 to       6.
 End of Minotr F.D. properties file   721 does not exist.
 End of Minotr F.D. properties file   722 does not exist.
 End of Minotr F.D. properties file   788 does not exist.
 Leave Link 1002 at Sun Dec 28 17:27:35 2025, MaxMem=   402653184 cpu:               5.7 elap:               0.3
 (Enter /cluster/software/Gaussian/g16_B.01/l601.exe)
 Copying SCF densities to generalized density rwf, IOpCl= 0 IROHF=0.

 **********************************************************************

            Population analysis using the SCF Density.

 **********************************************************************

 Orbital symmetries:
       Occupied  (SG) (SG) (SG) (SG) (PI) (PI) (SG)
       Virtual   (PI) (PI) (SG)
 The electronic state is 1-SG.
 Alpha  occ. eigenvalues --  -20.41557 -11.09219  -1.44527  -0.69683  -0.53992
 Alpha  occ. eigenvalues --   -0.53992  -0.44513
 Alpha virt. eigenvalues --    0.30614   0.30614   1.00910
          Condensed to atoms (all electrons):
               1          2
     1  O    7.676076   0.522859
     2  C    0.522859   5.278206
 Mulliken charges:
               1
     1  O   -0.198935
     2  C    0.198935
 Sum of Mulliken charges =  -0.00000
 Mulliken charges with hydrogens summed into heavy atoms:
               1
     1  O   -0.198935
     2  C    0.198935
 APT charges:
               1
     1  O   -0.163787
     2  C    0.163787
 Sum of APT charges =  -0.00000
 APT charges with hydrogens summed into heavy atoms:
               1
     1  O   -0.163787
     2  C    0.163787
 Electronic spatial extent (au):  <R**2>=             37.7217
 Charge=             -0.0000 electrons
 Dipole moment (field-independent basis, Debye):
    X=              0.0000    Y=              0.0000    Z=              0.1244  Tot=              0.1244
 Quadrupole moment (field-independent basis, Debye-Ang):
   XX=             -8.7042   YY=             -8.7042   ZZ=            -11.7203
   XY=              0.0000   XZ=              0.0000   YZ=              0.0000
 Traceless Quadrupole moment (field-independent basis, Debye-Ang):
   XX=              1.0053   YY=              1.0053   ZZ=             -2.0107
   XY=              0.0000   XZ=              0.0000   YZ=              0.0000
 Octapole moment (field-independent basis, Debye-Ang**2):
  XXX=              0.0000  YYY=              0.0000  ZZZ=              5.7995  XYY=              0.0000
  XXY=              0.0000  XXZ=              0.9952  XZZ=              0.0000  YZZ=              0.0000
  YYZ=              0.9952  XYZ=              0.0000
 Hexadecapole moment (field-independent basis, Debye-Ang**3):
 XXXX=             -5.3777 YYYY=             -5.3777 ZZZZ=            -30.2585 XXXY=              0.0000
 XXXZ=              0.0000 YYYX=              0.0000 YYYZ=              0.0000 ZZZX=              0.0000
 ZZZY=              0.0000 XXYY=             -1.7926 XXZZ=             -5.2294 YYZZ=             -5.2294
 XXYZ=              0.0000 YYXZ=              0.0000 ZZXY=              0.0000
 N-N= 2.217453901400D+01 E-N=-3.068494591647D+02  KE= 1.103991559670D+02
 Symmetry A1   KE= 1.024810950594D+02
 Symmetry A2   KE= 0.000000000000D+00
 Symmetry B1   KE= 3.959030453841D+00
 Symmetry B2   KE= 3.959030453841D+00
  Exact polarizability:   3.470   0.000   3.470   0.000   0.000   6.557
 Approx polarizability:   2.384  -0.000   2.384  -0.000  -0.000  11.283
 No NMR shielding tensors so no spin-rotation constants.
 Leave Link  601 at Sun Dec 28 17:27:35 2025, MaxMem=   402653184 cpu:               2.9 elap:               0.1
 (Enter /cluster/software/Gaussian/g16_B.01/l701.exe)
 SCFChk:  SCF convergence  1.96D-09 required  1.00D-08
 ... and contract with generalized density number  0.
 Compute integral second derivatives.
 Entering OneElI...
 Calculate overlap and kinetic energy integrals
    NBasis =  10  MinDer = 2  MaxDer = 2
 Requested accuracy = 0.1000D-12
 PrmmSu-InSpLW:  IPartL=    0 NPrtUS=   32 NPrtUL=    1 DoSpLW=F IThBeg=    0 IThEnd=   31 NThAct=   32.
 PrSmSu:  IncTry=   512 NBBP=             10 NTPThr=   100 NPartT=   32 Incr=           1 LDynOK=F GPUOK=F.
 PrsmSu:  NPrtUS=  32 ThrOK=T IAlg=2 LenDen=           0 ISkipM=0 DoSpLW=F IThBeg=    0 IThEnd=   31.
 Prism:   IPart=     0 DynPar=F LinDyn=F Incr=           1.
 PRISM was handed    12581429 working-precision words and    10 shell-pairs
 PRISM was handed    12581429 working-precision words and    10 shell-pairs
 PRISM was handed    12581429 working-precision words and    10 shell-pairs
 PRISM was handed    12581429 working-precision words and    10 shell-pairs
 PRISM was handed    12581429 working-precision words and    10 shell-pairs
 PRISM was handed    12581429 working-precision words and    10 shell-pairs
 PRISM was handed    12581429 working-precision words and    10 shell-pairs
 PRISM was handed    12581429 working-precision words and    10 shell-pairs
 PRISM was handed    12581429 working-precision words and    10 shell-pairs
 PRISM was handed    12581429 working-precision words and    10 shell-pairs
 PRISM was handed    12581429 working-precision words and    10 shell-pairs
 PRISM was handed    12581429 working-precision words and    10 shell-pairs
 PRISM was handed    12581429 working-precision words and    10 shell-pairs
 PRISM was handed    12581429 working-precision words and    10 shell-pairs
 PRISM was handed    12581429 working-precision words and    10 shell-pairs
 PRISM was handed    12581429 working-precision words and    10 shell-pairs
 PRISM was handed    12581429 working-precision words and    10 shell-pairs
 PRISM was handed    12581429 working-precision words and    10 shell-pairs
 PRISM was handed    12581429 working-precision words and    10 shell-pairs
 PRISM was handed    12581429 working-precision words and    10 shell-pairs
 PRISM was handed    12581429 working-precision words and    10 shell-pairs
 PRISM was handed    12581429 working-precision words and    10 shell-pairs
 PRISM was handed    12581429 working-precision words and    10 shell-pairs
 PRISM was handed    12581429 working-precision words and    10 shell-pairs
 PRISM was handed    12581429 working-precision words and    10 shell-pairs
 PRISM was handed    12581429 working-precision words and    10 shell-pairs
 PRISM was handed    12581429 working-precision words and    10 shell-pairs
 PRISM was handed    12581429 working-precision words and    10 shell-pairs
 PRISM was handed    12581429 working-precision words and    10 shell-pairs
 PRISM was handed    12581429 working-precision words and    10 shell-pairs
 PRISM was handed    12581429 working-precision words and    10 shell-pairs
 PRISM was handed    12581429 working-precision words and    10 shell-pairs
 IPart= 12 NShTot=           0 NBatch=           0 AvBLen=         0.0
 IPart= 20 NShTot=           0 NBatch=           0 AvBLen=         0.0
 IPart= 14 NShTot=           0 NBatch=           0 AvBLen=         0.0
 IPart= 17 NShTot=           0 NBatch=           0 AvBLen=         0.0
 IPart= 28 NShTot=           0 NBatch=           0 AvBLen=         0.0
 IPart= 24 NShTot=           0 NBatch=           0 AvBLen=         0.0
 IPart= 19 NShTot=           0 NBatch=           0 AvBLen=         0.0
 IPart= 18 NShTot=           0 NBatch=           0 AvBLen=         0.0
 IPart=  7 NShTot=           0 NBatch=           0 AvBLen=         0.0
 IPart= 21 NShTot=           0 NBatch=           0 AvBLen=         0.0
 IPart= 13 NShTot=           0 NBatch=           0 AvBLen=         0.0
 IPart= 23 NShTot=           0 NBatch=           0 AvBLen=         0.0
 IPart= 15 NShTot=           0 NBatch=           0 AvBLen=         0.0
 IPart=  8 NShTot=           0 NBatch=           0 AvBLen=         0.0
 IPart= 30 NShTot=           0 NBatch=           0 AvBLen=         0.0
 IPart=  4 NShTot=           0 NBatch=           0 AvBLen=         0.0
 IPart= 26 NShTot=           0 NBatch=           0 AvBLen=         0.0
 IPart= 10 NShTot=           0 NBatch=           0 AvBLen=         0.0
 IPart= 22 NShTot=           0 NBatch=           0 AvBLen=         0.0
 IPart= 16 NShTot=           0 NBatch=           0 AvBLen=         0.0
 IPart=  6 NShTot=           0 NBatch=           0 AvBLen=         0.0
 IPart=  2 NShTot=           2 NBatch=           2 AvBLen=         1.0
 IPart=  1 NShTot=           3 NBatch=           3 AvBLen=         1.0
 IPart=  0 NShTot=           4 NBatch=           4 AvBLen=         1.0
 IPart= 25 NShTot=           0 NBatch=           0 AvBLen=         0.0
 IPart= 11 NShTot=           0 NBatch=           0 AvBLen=         0.0
 IPart= 31 NShTot=           0 NBatch=           0 AvBLen=         0.0
 IPart=  5 NShTot=           0 NBatch=           0 AvBLen=         0.0
 IPart= 27 NShTot=           0 NBatch=           0 AvBLen=         0.0
 IPart=  9 NShTot=           0 NBatch=           0 AvBLen=         0.0
 IPart= 29 NShTot=           0 NBatch=           0 AvBLen=         0.0
 IPart=  3 NShTot=           1 NBatch=           1 AvBLen=         1.0
 PrSmSu:  NxtVal=             33.
 Entering OneElI...
 Calculate potential energy integrals
    NBasis =  10  MinDer = 2  MaxDer = 2
 Requested accuracy = 0.1000D-12
 PrmmSu-InSpLW:  IPartL=    0 NPrtUS=   32 NPrtUL=    1 DoSpLW=F IThBeg=    0 IThEnd=   31 NThAct=   32.
 PrSmSu:  IncTry=   512 NBBP=             20 NTPThr=   100 NPartT=   32 Incr=           1 LDynOK=F GPUOK=F.
 PrsmSu:  NPrtUS=  32 ThrOK=T IAlg=2 LenDen=           0 ISkipM=0 DoSpLW=F IThBeg=    0 IThEnd=   31.
 Prism:   IPart=     0 DynPar=F LinDyn=F Incr=           1.
 PRISM was handed    12581437 working-precision words and    10 shell-pairs
 PRISM was handed    12581437 working-precision words and    10 shell-pairs
 PRISM was handed    12581437 working-precision words and    10 shell-pairs
 PRISM was handed    12581437 working-precision words and    10 shell-pairs
 PRISM was handed    12581437 working-precision words and    10 shell-pairs
 PRISM was handed    12581437 working-precision words and    10 shell-pairs
 PRISM was handed    12581437 working-precision words and    10 shell-pairs
 PRISM was handed    12581437 working-precision words and    10 shell-pairs
 PRISM was handed    12581437 working-precision words and    10 shell-pairs
 PRISM was handed    12581437 working-precision words and    10 shell-pairs
 PRISM was handed    12581437 working-precision words and    10 shell-pairs
 PRISM was handed    12581437 working-precision words and    10 shell-pairs
 PRISM was handed    12581437 working-precision words and    10 shell-pairs
 PRISM was handed    12581437 working-precision words and    10 shell-pairs
 PRISM was handed    12581437 working-precision words and    10 shell-pairs
 PRISM was handed    12581437 working-precision words and    10 shell-pairs
 PRISM was handed    12581437 working-precision words and    10 shell-pairs
 PRISM was handed    12581437 working-precision words and    10 shell-pairs
 PRISM was handed    12581437 working-precision words and    10 shell-pairs
 PRISM was handed    12581437 working-precision words and    10 shell-pairs
 PRISM was handed    12581437 working-precision words and    10 shell-pairs
 PRISM was handed    12581437 working-precision words and    10 shell-pairs
 PRISM was handed    12581437 working-precision words and    10 shell-pairs
 PRISM was handed    12581437 working-precision words and    10 shell-pairs
 PRISM was handed    12581437 working-precision words and    10 shell-pairs
 PRISM was handed    12581437 working-precision words and    10 shell-pairs
 PRISM was handed    12581437 working-precision words and    10 shell-pairs
 PRISM was handed    12581437 working-precision words and    10 shell-pairs
 PRISM was handed    12581437 working-precision words and    10 shell-pairs
 PRISM was handed    12581437 working-precision words and    10 shell-pairs
 PRISM was handed    12581437 working-precision words and    10 shell-pairs
 PRISM was handed    12581437 working-precision words and    10 shell-pairs
 IPart= 17 NShTot=           0 NBatch=           0 AvBLen=         0.0
 IPart= 21 NShTot=           0 NBatch=           0 AvBLen=         0.0
 IPart= 19 NShTot=           0 NBatch=           0 AvBLen=         0.0
 IPart= 13 NShTot=           0 NBatch=           0 AvBLen=         0.0
 IPart= 15 NShTot=           0 NBatch=           0 AvBLen=         0.0
 IPart=  7 NShTot=           0 NBatch=           0 AvBLen=         0.0
 IPart= 20 NShTot=           0 NBatch=           0 AvBLen=         0.0
 IPart=  8 NShTot=           0 NBatch=           0 AvBLen=         0.0
 IPart= 28 NShTot=           0 NBatch=           0 AvBLen=         0.0
 IPart= 18 NShTot=           0 NBatch=           0 AvBLen=         0.0
 IPart=  6 NShTot=           0 NBatch=           0 AvBLen=         0.0
 IPart= 23 NShTot=           0 NBatch=           0 AvBLen=         0.0
 IPart=  4 NShTot=           0 NBatch=           0 AvBLen=         0.0
 IPart= 12 NShTot=           0 NBatch=           0 AvBLen=         0.0
 IPart= 24 NShTot=           0 NBatch=           0 AvBLen=         0.0
 IPart= 16 NShTot=           0 NBatch=           0 AvBLen=         0.0
 IPart= 10 NShTot=           0 NBatch=           0 AvBLen=         0.0
 IPart= 26 NShTot=           0 NBatch=           0 AvBLen=         0.0
 IPart= 14 NShTot=           0 NBatch=           0 AvBLen=         0.0
 IPart= 22 NShTot=           0 NBatch=           0 AvBLen=         0.0
 IPart= 30 NShTot=           0 NBatch=           0 AvBLen=         0.0
 IPart=  0 NShTot=           8 NBatch=           4 AvBLen=         2.0
 IPart=  2 NShTot=           4 NBatch=           2 AvBLen=         2.0
 IPart=  1 NShTot=           6 NBatch=           3 AvBLen=         2.0
 IPart= 25 NShTot=           0 NBatch=           0 AvBLen=         0.0
 IPart=  3 NShTot=           2 NBatch=           1 AvBLen=         2.0
 IPart= 31 NShTot=           0 NBatch=           0 AvBLen=         0.0
 IPart= 11 NShTot=           0 NBatch=           0 AvBLen=         0.0
 IPart= 27 NShTot=           0 NBatch=           0 AvBLen=         0.0
 IPart=  5 NShTot=           0 NBatch=           0 AvBLen=         0.0
 IPart=  9 NShTot=           0 NBatch=           0 AvBLen=         0.0
 IPart= 29 NShTot=           0 NBatch=           0 AvBLen=         0.0
 PrSmSu:  NxtVal=             33.
 Polarizability after L701:
                1             2             3 
      1  0.346983D+01
      2  0.000000D+00  0.346983D+01
      3  0.000000D+00  0.000000D+00  0.655652D+01
 Dipole Derivatives after L701:
                 1             2             3             4             5 
      1   0.226052D-01  0.000000D+00  0.000000D+00 -0.226052D-01  0.000000D+00
      2   0.000000D+00  0.226052D-01  0.000000D+00  0.000000D+00 -0.226052D-01
      3   0.000000D+00  0.000000D+00 -0.536572D+00  0.000000D+00  0.000000D+00
                 6 
      1   0.000000D+00
      2   0.000000D+00
      3   0.536572D+00
 Hessian after L701:
                1             2             3             4             5 
      1  0.108563D+02
      2  0.000000D+00  0.108563D+02
      3  0.000000D+00  0.000000D+00 -0.238555D+01
      4 -0.108563D+02  0.000000D+00  0.000000D+00  0.108563D+02
      5  0.000000D+00 -0.108563D+02  0.000000D+00  0.000000D+00  0.108563D+02
      6  0.000000D+00  0.000000D+00  0.238555D+01  0.000000D+00  0.000000D+00
                6 
      6 -0.238555D+01
 Leave Link  701 at Sun Dec 28 17:27:36 2025, MaxMem=   402653184 cpu:               3.1 elap:               0.1
 (Enter /cluster/software/Gaussian/g16_B.01/l702.exe)
 L702 exits ... SP integral derivatives will be done elsewhere.
 Leave Link  702 at Sun Dec 28 17:27:36 2025, MaxMem=   402653184 cpu:               0.6 elap:               0.1
 (Enter /cluster/software/Gaussian/g16_B.01/l703.exe)
 Integral derivatives from FoFJK, PRISM(SPDF).
 Compute integral second derivatives, UseDBF=F ICtDFT=           0.
 ICntrl=    100127.
 Calling FoFJK, ICntrl=    100127 FMM=F ISym2X=1 I1Cent= 0 IOpClX= 0 NMat=1 NMatS=1 NMatT=0.
 FoFJK:  IHMeth= 1 ICntrl=  100127 DoSepK=F KAlg= 0 I1Cent=           0 FoldK=F
 IRaf=         0 NMat=       1 IRICut=       1 DoRegI=T DoRafI=F ISym2E= 1 IDoP0=0 IntGTp=1.
 FoFCou: FMM=F IPFlag=           0 FMFlag=      100000 FMFlg1=         800
         NFxFlg=           0 DoJE=F BraDBF=F KetDBF=F FulRan=T
         wScrn=  0.000000 ICntrl=    100127 IOpCl=  0 I1Cent=           0 NGrid=           0
         NMat0=    1 NMatS0=      1 NMatT0=    0 NMatD0=    1 NMtDS0=    0 NMtDT0=    0
 Petite list used in FoFCou.
 FoFCou:  KetSym=F NOpSet=  4 NOpAb=4 NOp=  4.
 FoFCou:  CnvScl= 1.00D+00 Thresh= 1.00D-12 IAcrcy=      10.
 PrismS was handed   402650352 working-precision words and    10 shell-pairs
 FoFCou: LinMIO=F DoNuc=F BraDBF=F KetDBF=F HaveP=T PDBF=F HaveZ=T HaveW=F
         NIJTC =       3 NIJTAt=       0 NIJTCD=       0 NIJTT =       3
         IJTBeg=       1 IJTEnd=       3 KLTBeg=       1 KLTEnd=       3
         IPTBeg=       1 IPTEnd=       3 IPTBCv=       1 IPTECv=       3
         IZTBeg=       1 IZTEnd=       3 IZTBCv=       1 IZTECv=       3
         IWTBeg=       4 IWTEnd=       3 IWTBCv=       4 IWTECv=       3
         INTBeg=       1 INTEnd=       0 IFTBCv=       1 IFTECv=       3
 NCel replicated for PrismC:     1
 CoulSu-InSpLW:  IPartL=    0 NPrtUS=   32 NPrtUL=    1 DoSpLW=F IThBeg=    0 IThEnd=   31 NThAct=   32.
 CoulSu:  IncTry=  1024 NBBP=             55 NTPThr=   100 NPartT=   32 Incr=           1 LDynOK=F GPUOK=F.
 CoulSu:  NPrtUS=  32 ThrOK=T IAlg=2 LenDen=           0 LWGrdD=           0 DoCopy=F ISkipM=0
          DoSpLW=F IThBeg=    0 IThEnd=   31.
 Enter PrismC:  IPart=  0 JobTyp=22 DoJE=F Cont=F.
 PrismC:  IPart=     0 DynPar=F LinDyn=F Incr=           1 UseFst=F UseS4=T ISplat=2.
 PrismC was handed    12581456 working-precision words and    10 shell-pairs
 Enter PrismC:  IPart= 16 JobTyp=22 DoJE=F Cont=F.
 Enter PrismC:  IPart= 20 JobTyp=22 DoJE=F Cont=F.
 PrismC:  IPart=    16 DynPar=F LinDyn=F Incr=           1 UseFst=F UseS4=T ISplat=2.
 PrismC was handed    12581456 working-precision words and    10 shell-pairs
 PrismC:  IPart=    20 DynPar=F LinDyn=F Incr=           1 UseFst=F UseS4=T ISplat=2.
 PrismC was handed    12581456 working-precision words and    10 shell-pairs
 Enter PrismC:  IPart= 21 JobTyp=22 DoJE=F Cont=F.
 Enter PrismC:  IPart= 24 JobTyp=22 DoJE=F Cont=F.
 PrismC:  IPart=    21 DynPar=F LinDyn=F Incr=           1 UseFst=F UseS4=T ISplat=2.
 Enter PrismC:  IPart=  9 JobTyp=22 DoJE=F Cont=F.
 PrismC was handed    12581456 working-precision words and    10 shell-pairs
 Enter PrismC:  IPart= 18 JobTyp=22 DoJE=F Cont=F.
 Enter PrismC:  IPart= 22 JobTyp=22 DoJE=F Cont=F.
 Enter PrismC:  IPart= 28 JobTyp=22 DoJE=F Cont=F.
 PrismC:  IPart=    24 DynPar=F LinDyn=F Incr=           1 UseFst=F UseS4=T ISplat=2.
 PrismC was handed    12581456 working-precision words and    10 shell-pairs
 PrismC:  IPart=    28 DynPar=F LinDyn=F Incr=           1 UseFst=F UseS4=T ISplat=2.
 PrismC:  IPart=    18 DynPar=F LinDyn=F Incr=           1 UseFst=F UseS4=T ISplat=2.
 PrismC was handed    12581456 working-precision words and    10 shell-pairs
 PrismC:  IPart=    22 DynPar=F LinDyn=F Incr=           1 UseFst=F UseS4=T ISplat=2.
 PrismC was handed    12581456 working-precision words and    10 shell-pairs
 PrismC was handed    12581456 working-precision words and    10 shell-pairs
 PrismC:  IPart=     9 DynPar=F LinDyn=F Incr=           1 UseFst=F UseS4=T ISplat=2.
 Enter PrismC:  IPart= 13 JobTyp=22 DoJE=F Cont=F.
 PrismC was handed    12581456 working-precision words and    10 shell-pairs
 PrismC:  IPart=    13 DynPar=F LinDyn=F Incr=           1 UseFst=F UseS4=T ISplat=2.
 PrismC was handed    12581456 working-precision words and    10 shell-pairs
 Enter PrismC:  IPart=  7 JobTyp=22 DoJE=F Cont=F.
 PrismC:  IPart=     7 DynPar=F LinDyn=F Incr=           1 UseFst=F UseS4=T ISplat=2.
 PrismC was handed    12581456 working-precision words and    10 shell-pairs
 Enter PrismC:  IPart= 31 JobTyp=22 DoJE=F Cont=F.
 Enter PrismC:  IPart= 29 JobTyp=22 DoJE=F Cont=F.
 PrismC:  IPart=    31 DynPar=F LinDyn=F Incr=           1 UseFst=F UseS4=T ISplat=2.
 PrismC was handed    12581456 working-precision words and    10 shell-pairs
 PrismC:  IPart=    29 DynPar=F LinDyn=F Incr=           1 UseFst=F UseS4=T ISplat=2.
 PrismC was handed    12581456 working-precision words and    10 shell-pairs
 Enter PrismC:  IPart= 25 JobTyp=22 DoJE=F Cont=F.
 PrismC:  IPart=    25 DynPar=F LinDyn=F Incr=           1 UseFst=F UseS4=T ISplat=2.
 PrismC was handed    12581456 working-precision words and    10 shell-pairs
 Enter PrismC:  IPart=  5 JobTyp=22 DoJE=F Cont=F.
 PrismC:  IPart=     5 DynPar=F LinDyn=F Incr=           1 UseFst=F UseS4=T ISplat=2.
 PrismC was handed    12581456 working-precision words and    10 shell-pairs
 Enter PrismC:  IPart=  3 JobTyp=22 DoJE=F Cont=F.
 PrismC:  IPart=     3 DynPar=F LinDyn=F Incr=           1 UseFst=F UseS4=T ISplat=2.
 PrismC was handed    12581456 working-precision words and    10 shell-pairs
 Enter PrismC:  IPart= 19 JobTyp=22 DoJE=F Cont=F.
 Enter PrismC:  IPart= 17 JobTyp=22 DoJE=F Cont=F.
 PrismC:  IPart=    19 DynPar=F LinDyn=F Incr=           1 UseFst=F UseS4=T ISplat=2.
 PrismC was handed    12581456 working-precision words and    10 shell-pairs
 PrismC:  IPart=    17 DynPar=F LinDyn=F Incr=           1 UseFst=F UseS4=T ISplat=2.
 PrismC was handed    12581456 working-precision words and    10 shell-pairs
 Enter PrismC:  IPart=  8 JobTyp=22 DoJE=F Cont=F.
 Enter PrismC:  IPart= 23 JobTyp=22 DoJE=F Cont=F.
 PrismC:  IPart=     8 DynPar=F LinDyn=F Incr=           1 UseFst=F UseS4=T ISplat=2.
 Enter PrismC:  IPart= 27 JobTyp=22 DoJE=F Cont=F.
 PrismC was handed    12581456 working-precision words and    10 shell-pairs
 PrismC:  IPart=    23 DynPar=F LinDyn=F Incr=           1 UseFst=F UseS4=T ISplat=2.
 Enter PrismC:  IPart= 11 JobTyp=22 DoJE=F Cont=F.
 PrismC:  IPart=    27 DynPar=F LinDyn=F Incr=           1 UseFst=F UseS4=T ISplat=2.
 PrismC:  IPart=    11 DynPar=F LinDyn=F Incr=           1 UseFst=F UseS4=T ISplat=2.
 PrismC was handed    12581456 working-precision words and    10 shell-pairs
 PrismC was handed    12581456 working-precision words and    10 shell-pairs
 PrismC was handed    12581456 working-precision words and    10 shell-pairs
 Enter PrismC:  IPart= 12 JobTyp=22 DoJE=F Cont=F.
 Enter PrismC:  IPart=  1 JobTyp=22 DoJE=F Cont=F.
 PrismC:  IPart=    12 DynPar=F LinDyn=F Incr=           1 UseFst=F UseS4=T ISplat=2.
 PrismC was handed    12581456 working-precision words and    10 shell-pairs
 PrismC:  IPart=     1 DynPar=F LinDyn=F Incr=           1 UseFst=F UseS4=T ISplat=2.
 PrismC was handed    12581456 working-precision words and    10 shell-pairs
 Enter PrismC:  IPart=  6 JobTyp=22 DoJE=F Cont=F.
 PrismC:  IPart=     6 DynPar=F LinDyn=F Incr=           1 UseFst=F UseS4=T ISplat=2.
 PrismC was handed    12581456 working-precision words and    10 shell-pairs
 Enter PrismC:  IPart= 26 JobTyp=22 DoJE=F Cont=F.
 Enter PrismC:  IPart= 10 JobTyp=22 DoJE=F Cont=F.
 PrismC:  IPart=    26 DynPar=F LinDyn=F Incr=           1 UseFst=F UseS4=T ISplat=2.
 PrismC was handed    12581456 working-precision words and    10 shell-pairs
 PrismC:  IPart=    10 DynPar=F LinDyn=F Incr=           1 UseFst=F UseS4=T ISplat=2.
 PrismC was handed    12581456 working-precision words and    10 shell-pairs
 Enter PrismC:  IPart= 15 JobTyp=22 DoJE=F Cont=F.
 Enter PrismC:  IPart= 30 JobTyp=22 DoJE=F Cont=F.
 PrismC:  IPart=    15 DynPar=F LinDyn=F Incr=           1 UseFst=F UseS4=T ISplat=2.
 PrismC was handed    12581456 working-precision words and    10 shell-pairs
 PrismC:  IPart=    30 DynPar=F LinDyn=F Incr=           1 UseFst=F UseS4=T ISplat=2.
 PrismC was handed    12581456 working-precision words and    10 shell-pairs
 Enter PrismC:  IPart=  2 JobTyp=22 DoJE=F Cont=F.
 Enter PrismC:  IPart= 14 JobTyp=22 DoJE=F Cont=F.
 PrismC:  IPart=     2 DynPar=F LinDyn=F Incr=           1 UseFst=F UseS4=T ISplat=2.
 PrismC was handed    12581456 working-precision words and    10 shell-pairs
 PrismC:  IPart=    14 DynPar=F LinDyn=F Incr=           1 UseFst=F UseS4=T ISplat=2.
 PrismC was handed    12581456 working-precision words and    10 shell-pairs
 Enter PrismC:  IPart=  4 JobTyp=22 DoJE=F Cont=F.
 PrismC:  IPart=     4 DynPar=F LinDyn=F Incr=           1 UseFst=F UseS4=T ISplat=2.
 PrismC was handed    12581456 working-precision words and    10 shell-pairs
 IPart= 13 NShTot=           1 NShNF=           1 NShFF=           0 MinMC=      10
           NShCPU=           1 NBCPU=           1 AvBCPU=         1.0
           NShGPU=           0 NBGPU=           0 AvBGPU=         0.0
 IPart= 17 NShTot=           0 NShNF=           0 NShFF=           0 MinMC=      10
           NShCPU=           0 NBCPU=           0 AvBCPU=         0.0
           NShGPU=           0 NBGPU=           0 AvBGPU=         0.0
 IPart= 22 NShTot=           0 NShNF=           0 NShFF=           0 MinMC=      10
           NShCPU=           0 NBCPU=           0 AvBCPU=         0.0
           NShGPU=           0 NBGPU=           0 AvBGPU=         0.0
 IPart= 23 NShTot=           0 NShNF=           0 NShFF=           0 MinMC=      10
           NShCPU=           0 NBCPU=           0 AvBCPU=         0.0
           NShGPU=           0 NBGPU=           0 AvBGPU=         0.0
 IPart= 16 NShTot=           0 NShNF=           0 NShFF=           0 MinMC=      10
           NShCPU=           0 NBCPU=           0 AvBCPU=         0.0
           NShGPU=           0 NBGPU=           0 AvBGPU=         0.0
 IPart= 20 NShTot=           0 NShNF=           0 NShFF=           0 MinMC=      10
           NShCPU=           0 NBCPU=           0 AvBCPU=         0.0
           NShGPU=           0 NBGPU=           0 AvBGPU=         0.0
 IPart=  9 NShTot=           2 NShNF=           2 NShFF=           0 MinMC=      10
           NShCPU=           2 NBCPU=           2 AvBCPU=         1.0
           NShGPU=           0 NBGPU=           0 AvBGPU=         0.0
 IPart= 28 NShTot=           0 NShNF=           0 NShFF=           0 MinMC=      10
           NShCPU=           0 NBCPU=           0 AvBCPU=         0.0
           NShGPU=           0 NBGPU=           0 AvBGPU=         0.0
 IPart= 15 NShTot=           1 NShNF=           1 NShFF=           0 MinMC=      10
           NShCPU=           1 NBCPU=           1 AvBCPU=         1.0
           NShGPU=           0 NBGPU=           0 AvBGPU=         0.0
 IPart= 18 NShTot=           0 NShNF=           0 NShFF=           0 MinMC=      10
           NShCPU=           0 NBCPU=           0 AvBCPU=         0.0
           NShGPU=           0 NBGPU=           0 AvBGPU=         0.0
 IPart= 24 NShTot=           0 NShNF=           0 NShFF=           0 MinMC=      10
           NShCPU=           0 NBCPU=           0 AvBCPU=         0.0
           NShGPU=           0 NBGPU=           0 AvBGPU=         0.0
 IPart= 11 NShTot=           1 NShNF=           1 NShFF=           0 MinMC=      10
           NShCPU=           1 NBCPU=           1 AvBCPU=         1.0
           NShGPU=           0 NBGPU=           0 AvBGPU=         0.0
 IPart= 30 NShTot=           0 NShNF=           0 NShFF=           0 MinMC=      10
           NShCPU=           0 NBCPU=           0 AvBCPU=         0.0
           NShGPU=           0 NBGPU=           0 AvBGPU=         0.0
 IPart= 12 NShTot=           1 NShNF=           1 NShFF=           0 MinMC=      10
           NShCPU=           1 NBCPU=           1 AvBCPU=         1.0
           NShGPU=           0 NBGPU=           0 AvBGPU=         0.0
 IPart= 26 NShTot=           0 NShNF=           0 NShFF=           0 MinMC=      10
           NShCPU=           0 NBCPU=           0 AvBCPU=         0.0
           NShGPU=           0 NBGPU=           0 AvBGPU=         0.0
 IPart= 14 NShTot=           1 NShNF=           1 NShFF=           0 MinMC=      10
           NShCPU=           1 NBCPU=           1 AvBCPU=         1.0
           NShGPU=           0 NBGPU=           0 AvBGPU=         0.0
 IPart= 10 NShTot=           2 NShNF=           2 NShFF=           0 MinMC=      10
           NShCPU=           2 NBCPU=           2 AvBCPU=         1.0
           NShGPU=           0 NBGPU=           0 AvBGPU=         0.0
 IPart=  1 NShTot=           6 NShNF=           6 NShFF=           0 MinMC=      10
           NShCPU=           6 NBCPU=           6 AvBCPU=         1.0
           NShGPU=           0 NBGPU=           0 AvBGPU=         0.0
 IPart=  2 NShTot=           6 NShNF=           6 NShFF=           0 MinMC=      10
           NShCPU=           6 NBCPU=           6 AvBCPU=         1.0
           NShGPU=           0 NBGPU=           0 AvBGPU=         0.0
 IPart=  3 NShTot=           6 NShNF=           6 NShFF=           0 MinMC=      10
           NShCPU=           6 NBCPU=           6 AvBCPU=         1.0
           NShGPU=           0 NBGPU=           0 AvBGPU=         0.0
 IPart=  0 NShTot=          10 NShNF=          10 NShFF=           0 MinMC=      10
           NShCPU=          10 NBCPU=          10 AvBCPU=         1.0
           NShGPU=           0 NBGPU=           0 AvBGPU=         0.0
 IPart=  8 NShTot=           3 NShNF=           3 NShFF=           0 MinMC=      10
           NShCPU=           3 NBCPU=           3 AvBCPU=         1.0
           NShGPU=           0 NBGPU=           0 AvBGPU=         0.0
 IPart=  6 NShTot=           3 NShNF=           3 NShFF=           0 MinMC=      10
           NShCPU=           3 NBCPU=           3 AvBCPU=         1.0
           NShGPU=           0 NBGPU=           0 AvBGPU=         0.0
 IPart=  4 NShTot=           5 NShNF=           5 NShFF=           0 MinMC=      10
           NShCPU=           5 NBCPU=           5 AvBCPU=         1.0
           NShGPU=           0 NBGPU=           0 AvBGPU=         0.0
 IPart= 27 NShTot=           0 NShNF=           0 NShFF=           0 MinMC=      10
           NShCPU=           0 NBCPU=           0 AvBCPU=         0.0
           NShGPU=           0 NBGPU=           0 AvBGPU=         0.0
 IPart= 21 NShTot=           0 NShNF=           0 NShFF=           0 MinMC=      10
           NShCPU=           0 NBCPU=           0 AvBCPU=         0.0
           NShGPU=           0 NBGPU=           0 AvBGPU=         0.0
 IPart= 31 NShTot=           0 NShNF=           0 NShFF=           0 MinMC=      10
           NShCPU=           0 NBCPU=           0 AvBCPU=         0.0
           NShGPU=           0 NBGPU=           0 AvBGPU=         0.0
 IPart= 29 NShTot=           0 NShNF=           0 NShFF=           0 MinMC=      10
           NShCPU=           0 NBCPU=           0 AvBCPU=         0.0
           NShGPU=           0 NBGPU=           0 AvBGPU=         0.0
 IPart= 19 NShTot=           0 NShNF=           0 NShFF=           0 MinMC=      10
           NShCPU=           0 NBCPU=           0 AvBCPU=         0.0
           NShGPU=           0 NBGPU=           0 AvBGPU=         0.0
 IPart= 25 NShTot=           0 NShNF=           0 NShFF=           0 MinMC=      10
           NShCPU=           0 NBCPU=           0 AvBCPU=         0.0
           NShGPU=           0 NBGPU=           0 AvBGPU=         0.0
 IPart=  5 NShTot=           4 NShNF=           4 NShFF=           0 MinMC=      10
           NShCPU=           4 NBCPU=           4 AvBCPU=         1.0
           NShGPU=           0 NBGPU=           0 AvBGPU=         0.0
 IPart=  7 NShTot=           3 NShNF=           3 NShFF=           0 MinMC=      10
           NShCPU=           3 NBCPU=           3 AvBCPU=         1.0
           NShGPU=           0 NBGPU=           0 AvBGPU=         0.0
 CoulSu:  NxtVal=             33 LenVP=       12581457 MinMC=      10.
 Polarizability after L703:
                1             2             3 
      1  0.346983D+01
      2  0.000000D+00  0.346983D+01
      3  0.000000D+00  0.000000D+00  0.655652D+01
 Dipole Derivatives after L703:
                 1             2             3             4             5 
      1   0.226052D-01  0.000000D+00  0.000000D+00 -0.226052D-01  0.000000D+00
      2   0.000000D+00  0.226052D-01  0.000000D+00  0.000000D+00 -0.226052D-01
      3   0.000000D+00  0.000000D+00 -0.536572D+00  0.000000D+00  0.000000D+00
                 6 
      1   0.000000D+00
      2   0.000000D+00
      3   0.536572D+00
 Hessian after L703:
                1             2             3             4             5 
      1  0.000000D+00
      2  0.000000D+00  0.000000D+00
      3  0.000000D+00  0.000000D+00  0.157383D+01
      4  0.000000D+00  0.000000D+00  0.000000D+00  0.000000D+00
      5  0.000000D+00  0.000000D+00  0.000000D+00  0.000000D+00  0.000000D+00
      6  0.000000D+00  0.000000D+00 -0.157383D+01  0.000000D+00  0.000000D+00
                6 
      6  0.157383D+01
 Leave Link  703 at Sun Dec 28 17:27:36 2025, MaxMem=   402653184 cpu:               7.2 elap:               0.3
 (Enter /cluster/software/Gaussian/g16_B.01/l716.exe)
 FrcOut:
 IF    =        37 IFX   =        43 IFXYZ =        49
 IFFX  =        55 IFFFX =        76 IFLen =         6
 IFFLen=        21 IFFFLn=         0 IEDerv=        76
 LEDerv=       341 IFroze=       519 ICStrt=       770
 Dipole        = 0.00000000D+00 0.00000000D+00 4.89322464D-02
 DipoleDeriv   = 2.26052107D-02 0.00000000D+00 0.00000000D+00
                 0.00000000D+00 2.26052107D-02 0.00000000D+00
                 0.00000000D+00 0.00000000D+00-5.36572106D-01
                -2.26052107D-02 0.00000000D+00 0.00000000D+00
                 0.00000000D+00-2.26052107D-02 0.00000000D+00
                 0.00000000D+00 0.00000000D+00 5.36572106D-01
 Polarizability= 3.46982838D+00 0.00000000D+00 3.46982838D+00
                 0.00000000D+00 0.00000000D+00 6.55651970D+00
 PolarDeriv    = 0.00000000D+00 0.00000000D+00 0.00000000D+00
                 1.42595744D+00 0.00000000D+00 0.00000000D+00
                 0.00000000D+00 0.00000000D+00 0.00000000D+00
                 0.00000000D+00 1.42595744D+00 0.00000000D+00
                 1.18382081D+00 0.00000000D+00 1.18382081D+00
                 0.00000000D+00 0.00000000D+00 6.02164291D+00
                 0.00000000D+00 0.00000000D+00 0.00000000D+00
                -1.42595744D+00 0.00000000D+00 0.00000000D+00
                 0.00000000D+00 0.00000000D+00 0.00000000D+00
                 0.00000000D+00-1.42595744D+00 0.00000000D+00
                -1.18382081D+00 0.00000000D+00-1.18382081D+00
                 0.00000000D+00 0.00000000D+00-6.02164291D+00
 HyperPolar    = 0.00000000D+00 0.00000000D+00 0.00000000D+00
                 0.00000000D+00 5.60102212D+00 0.00000000D+00
                 5.60102212D+00 0.00000000D+00 0.00000000D+00
                -4.64109277D+00
 Quadrupole    = 7.47447365D-01 7.47447365D-01-1.49489473D+00
                 0.00000000D+00 0.00000000D+00 0.00000000D+00
 VibFq2-Diag1:  N=      6 IV=           3 MDV=   402651985 NE2=    67108663
 Full mass-weighted force constant matrix:
 Low frequencies ---    0.0005    0.0015    0.0015    0.0633    0.0633 2462.8673
 OrtVCM:  Ph=1 IPass= 1 DotMx1= 0.00D+00
 OrtVCM:  IS=    1 I=    1 IndO=    1 Dot= 1.00D+00 DotN= 1.00D+00 ElMax1= 7.56D-01 ElMax1N= 7.56D-01
 OrtVCM:  Ph=2 NNew=    0 IAdd=    2 IPass= 1 DotMx2= 0.00D+00
 OrtVCM:  IS=    1 I=    2 IndO=    2 Dot= 1.00D+00 DotN= 1.00D+00 ElMax1= 7.56D-01 ElMax1N= 7.56D-01
 OrtVCM:  Ph=2 NNew=    0 IAdd=    3 IPass= 1 DotMx2= 0.00D+00
 OrtVCM:  IS=    1 I=    3 IndO=    3 Dot= 1.00D+00 DotN= 1.00D+00 ElMax1= 7.56D-01 ElMax1N= 7.56D-01
 OrtVCM:  Ph=2 NNew=    0 IAdd=    4 IPass= 1 DotMx2= 5.55D-17
 OrtVCM:  IS=    1 I=    4 IndO=    4 Dot= 1.00D+00 DotN= 1.00D+00 ElMax1= 7.56D-01 ElMax1N= 7.56D-01
 OrtVCM:  Ph=2 NNew=    0 IAdd=    5 IPass= 1 DotMx2= 5.55D-17
 OrtVCM:  IS=    1 I=    5 IndO=    5 Dot= 1.00D+00 DotN= 1.00D+00 ElMax1= 7.56D-01 ElMax1N= 7.56D-01
 OrtVCM:  Ph=1 IPass= 1 DotMx1= 7.56D-01
 OrtVCM:  Ph=1 IPass= 2 DotMx1= 1.62D-16
 OrtVCM:  IS=    1 I=    1 IndO=    0 Dot= 4.94D-63 DotN= 4.94D-63 ElMax1= 5.55D-32 ElMax1N= 5.55D-32
 SchOr2:  IPass= 1 Test2A= 1.00D-01 IOff=     0 NDo=     1 NNew=     0
 OrtVCM:  Ph=1 IPass= 1 DotMx1= 7.56D-01
 OrtVCM:  Ph=1 IPass= 2 DotMx1= 1.62D-16
 OrtVCM:  IS=    1 I=    1 IndO=    0 Dot= 4.94D-63 DotN= 4.94D-63 ElMax1= 5.55D-32 ElMax1N= 5.55D-32
 SchOr2:  IPass= 1 Test2A= 1.00D-01 IOff=     1 NDo=     1 NNew=     0
 OrtVCM:  Ph=1 IPass= 1 DotMx1= 7.56D-01
 OrtVCM:  Ph=1 IPass= 2 DotMx1= 1.11D-16
 OrtVCM:  IS=    1 I=    1 IndO=    6 Dot= 4.29D-01 DotN= 4.29D-01 ElMax1= 4.95D-01 ElMax1N= 4.95D-01
 SchOr2:  IPass= 1 Test2A= 1.00D-01 IOff=     2 NDo=     1 NNew=     1
 VibFq2-Diag2:  N=      1 IV=           3 MDV=   402651985 NE2=   402651983
 Dipole derivative wrt mode   1:  0.00000D+00  0.00000D+00  6.39826D+00
 Polarizability derivatives wrt mode          1
                 1             2             3 
      1  -0.126604D+00  0.000000D+00  0.000000D+00
      2   0.000000D+00 -0.126604D+00  0.000000D+00
      3   0.000000D+00  0.000000D+00 -0.643984D+00
 Vibrational polarizability contributions from mode   1       0.0000000       0.0000000       0.1816245
 Vibrational hyperpolarizability contributions from mode   1      -0.0000000      -0.0000000      -2.0382687
 IFr=  0 A012= 0.12D+01 0.40D+01 0.67D+00 Act= 0.59D+01 DepolP= 0.16D+00 DepolU= 0.27D+00
 Diagonal vibrational polarizability:
        0.0000000       0.0000000       0.1816245
 Diagonal vibrational hyperpolarizability:
        0.0000000       0.0000000      -2.0382687
 NorSel:  MapVib=      1
 Harmonic frequencies (cm**-1), IR intensities (KM/Mole), Raman scattering
 activities (A**4/AMU), depolarization ratios for plane and unpolarized
 incident light, reduced masses (AMU), force constants (mDyne/A),
 and normal coordinates:
                           1
                          SG
       Frequencies ---  2462.8673
    Reduced masses ---    13.4388
   Force constants ---    48.0276
    IR Intensities ---    40.9377
  Raman Activities ---     5.8985
    Depol. (Plane) ---     0.1576
    Depol. (Unpol) ---     0.2723
 Coord Atom Element:
   1     1     8         -0.00000
   2     1     8         -0.00000
   3     1     8         -0.60012
   1     2     6         -0.00000
   2     2     6         -0.00000
   3     2     6          0.79991
 Harmonic frequencies (cm**-1), IR intensities (KM/Mole), Raman scattering
 activities (A**4/AMU), depolarization ratios for plane and unpolarized
 incident light, reduced masses (AMU), force constants (mDyne/A),
 and normal coordinates:
                      1
                     SG
 Frequencies --   2462.8673
 Red. masses --     13.4388
 Frc consts  --     48.0276
 IR Inten    --     40.9377
 Raman Activ --      5.8985
 Depolar (P) --      0.1576
 Depolar (U) --      0.2723
  Atom  AN      X      Y      Z
     1   8    -0.00  -0.00  -0.60
     2   6    -0.00  -0.00   0.80

 -------------------
 - Thermochemistry -
 -------------------
 Temperature   298.150 Kelvin.  Pressure   1.00000 Atm.
 Atom     1 has atomic number  8 and mass  15.99491
 Atom     2 has atomic number  6 and mass  12.00000
 Molecular mass:    27.99491 amu.
 Principal axes and moments of inertia in atomic units:
                           1         2         3
     Eigenvalues --     0.00000  32.12605  32.12605
           X            0.00000  -0.00000   1.00000
           Y            0.00000   1.00000   0.00000
           Z            1.00000   0.00000   0.00000
 This molecule is a prolate symmetric top.
 Rotational symmetry number  1.
 Rotational temperature (Kelvin)      2.69607
 Rotational constant (GHZ):          56.176882
 Zero-point vibrational energy      14731.2 (Joules/Mol)
                                    3.52085 (Kcal/Mol)
 Vibrational temperatures:   3543.52
          (Kelvin)
 
 Zero-point correction=                           0.005611 (Hartree/Particle)
 Thermal correction to Energy=                    0.007971
 Thermal correction to Enthalpy=                  0.008916
 Thermal correction to Gibbs Free Energy=        -0.013540
 Sum of electronic and zero-point Energies=           -111.219839
 Sum of electronic and thermal Energies=              -111.217478
 Sum of electronic and thermal Enthalpies=            -111.216534
 Sum of electronic and thermal Free Energies=         -111.238990
 
                     E (Thermal)             CV                S
                      KCal/Mol        Cal/Mol-Kelvin    Cal/Mol-Kelvin
 Total                    5.002              4.970             47.262
 Electronic               0.000              0.000              0.000
 Translational            0.889              2.981             35.923
 Rotational               0.592              1.987             11.339
 Vibrational              3.521              0.002              0.000
                       Q            Log10(Q)             Ln(Q)
 Total Bot       0.169037D+07          6.227982         14.340459
 Total V=0       0.643843D+09          8.808780         20.282966
 Vib (Bot)       0.262546D-02         -2.580795         -5.942500
 Vib (V=0)       0.100001D+01          0.000003          0.000007
 Electronic      0.100000D+01          0.000000          0.000000
 Translational   0.582201D+07          6.765073         15.577155
 Rotational      0.110587D+03          2.043704          4.705803
 Write normal modes, IRwNMS=   765 IRotNM=-1 NVibU=     1.

     ==================================================
      Anharmonic Data: Displacement Vectors Definition
     ==================================================
 Symm:  InNGrp=     InAxis=0 RotPrA=T RotCs=F.
 PtGrp-- Translation vector:   -0.000000   -0.000000    0.000169
 PtGrp-- Principal moments and axes of charge:
         Moments:        0.0000000       32.1260477       32.1260477
         Axes   :         0.000000        -0.000000         1.000000
                          0.000000         1.000000         0.000000
                          1.000000         0.000000         0.000000
 PtGrp-- Principal moments and axes of charge:
         Moments:        0.0000000       32.1260477       32.1260477
         Axes   :         0.000000        -0.000000         1.000000
                          0.000000         1.000000         0.000000
                          1.000000         0.000000         0.000000
 Coordinates after PtGrp: 
                 1             2             3 
      1   0.000000D+00  0.000000D+00  0.927873D+00
      2   0.000000D+00  0.000000D+00 -0.123677D+01
 Rotation matrix after PtGrp: 
                 1             2             3 
      1   0.100000D+01  0.000000D+00  0.000000D+00
      2   0.000000D+00  0.100000D+01  0.000000D+00
      3   0.000000D+00  0.000000D+00  0.100000D+01

 Framework definition based on atomic masses: C*V 
 NOTE: Degenerate modes will be reoriented, following the conventions
       from: L. Henry, G. Amat, J. Mol. Spectrosc. 1961, 5, 319
 Linear top along axis: Z
                 1 
      1  -0.000000D+00
      2   0.000000D+00
      3   0.163704D+00
      4   0.000000D+00
      5   0.000000D+00
      6  -0.218203D+00
                 1 
      1   0.000000D+00
      2   0.000000D+00
      3   0.163704D+00
      4   0.000000D+00
      5   0.000000D+00
      6  -0.218203D+00
 Forces in standard orientation:
 -------------------------------------------------------------------
 Center     Atomic                   Forces (Hartrees/Bohr)
 Number     Number              X              Y              Z
 -------------------------------------------------------------------
      1        8           0.000000000    0.000000000    0.000000003
      2        6           0.000000000    0.000000000   -0.000000003
 -------------------------------------------------------------------
 Cartesian Forces:  Max     0.000000003 RMS     0.000000002
 ***** Axes restored to original set *****
 Rotating derivatives, DoTrsp=F IDiff=-2 LEDeriv=    340 LFDPrp=       0 LDFDPr=       0.
 -------------------------------------------------------------------
 Center     Atomic                   Forces (Hartrees/Bohr)
 Number     Number              X              Y              Z
 -------------------------------------------------------------------
      1        8          -0.000000000   -0.000000000    0.000000003
      2        6          -0.000000000   -0.000000000   -0.000000003
 -------------------------------------------------------------------
 Cartesian Forces:  Max     0.000000003 RMS     0.000000002
 Force constants in Cartesian coordinates: 
                1             2             3             4             5 
      1  0.000000D+00
      2  0.000000D+00  0.000000D+00
      3  0.000000D+00  0.000000D+00  0.157383D+01
      4  0.000000D+00  0.000000D+00  0.000000D+00  0.000000D+00
      5  0.000000D+00  0.000000D+00  0.000000D+00  0.000000D+00  0.000000D+00
      6  0.000000D+00  0.000000D+00 -0.157383D+01  0.000000D+00  0.000000D+00
                6 
      6  0.157383D+01
 Cartesian forces in FCRed:
 I=    1 X=   0.000000000000D+00 Y=   0.000000000000D+00 Z=   0.000000000000D+00
 I=    2 X=   0.000000000000D+00 Y=   0.000000000000D+00 Z=   0.000000000000D+00
 Cartesian force constants in FCRed: 
                1             2             3             4             5 
      1  0.000000D+00
      2  0.000000D+00  0.000000D+00
      3  0.000000D+00  0.000000D+00  0.157383D+01
      4  0.000000D+00  0.000000D+00  0.000000D+00  0.000000D+00
      5  0.000000D+00  0.000000D+00  0.000000D+00  0.000000D+00  0.000000D+00
      6  0.000000D+00  0.000000D+00 -0.157383D+01  0.000000D+00  0.000000D+00
                6 
      6  0.157383D+01
 FormGI is forming the generalized inverse of G from B-inverse, IUseBI=4.
 Internal forces: 
                 1 
      1   0.000000D+00
 Internal force constants: 
                1 
      1  0.157383D+01
 Force constants in internal coordinates: 
                1 
      1  0.157383D+01
 Final forces over variables, Energy=-1.11225450D+02:
 -2.79309109D-09
 Leave Link  716 at Sun Dec 28 17:27:36 2025, MaxMem=   402653184 cpu:               1.4 elap:               0.1
 (Enter /cluster/software/Gaussian/g16_B.01/l106.exe)
 NDeriv=      1 NFrqRd=  0 NDerD0=      0 MskFDP=       0 MskDFD=       0 MskDF0=       0
 At 1st pt F.D. properties file   721 does not exist.
 At 1st pt F.D. properties file   722 does not exist.
 D2Numr ... symmetry will not be used.
 Leave Link  106 at Sun Dec 28 17:27:36 2025, MaxMem=   402653184 cpu:               1.6 elap:               0.1
 (Enter /cluster/software/Gaussian/g16_B.01/l301.exe)
 Standard basis: STO-3G (5D, 7F)
 Ernie: Thresh=  0.10000D-02 Tol=  0.10000D-05 Strict=F.
    10 basis functions,    30 primitive gaussians,    10 cartesian basis functions
     7 alpha electrons        7 beta electrons
       nuclear repulsion energy        22.1008539827 Hartrees.
 IExCor=    0 DFT=F Ex=HF Corr=None ExCW=0 ScaHFX=  1.000000
 ScaDFX=  1.000000  1.000000  1.000000  1.000000 ScalE2=  1.000000  1.000000
 IRadAn=      5 IRanWt=     -1 IRanGd=            0 ICorTp=0 IEmpDi=  4
 NAtoms=    2 NActive=    2 NUniq=    2 SFac= 1.00D+00 NAtFMM=   60 NAOKFM=F Big=F
 Integral buffers will be    131072 words long.
 Raffenetti 1 integral format.
 Two-electron integral symmetry is turned off.
 Leave Link  301 at Sun Dec 28 17:27:37 2025, MaxMem=   402653184 cpu:               1.8 elap:               0.1
 (Enter /cluster/software/Gaussian/g16_B.01/l302.exe)
 NPDir=0 NMtPBC=     1 NCelOv=     1 NCel=       1 NClECP=     1 NCelD=      1
         NCelK=      1 NCelE2=     1 NClLst=     1 CellRange=     0.0.
 One-electron integrals computed using PRISM.
 NBasis=    10 RedAO= T EigKep=  2.16D-01  NBF=    10
 NBsUse=    10 1.00D-06 EigRej= -1.00D+00 NBFU=    10
 Leave Link  302 at Sun Dec 28 17:27:37 2025, MaxMem=   402653184 cpu:               2.5 elap:               0.1
 (Enter /cluster/software/Gaussian/g16_B.01/l303.exe)
 DipDrv:  MaxL=1.
 Leave Link  303 at Sun Dec 28 17:27:37 2025, MaxMem=   402653184 cpu:               0.7 elap:               0.1
 (Enter /cluster/software/Gaussian/g16_B.01/l401.exe)
 Initial guess from the checkpoint file:  "inputFull_3q.chk"
 B after Tr=     0.000000    0.000000    0.000001
         Rot=    1.000000    0.000000    0.000000    0.000000 Ang=   0.00 deg.
 Guess basis will be translated and rotated to current coordinates.
 JPrj=2 DoOrth=T DoCkMO=T.
 Leave Link  401 at Sun Dec 28 17:27:37 2025, MaxMem=   402653184 cpu:               2.8 elap:               0.1
 (Enter /cluster/software/Gaussian/g16_B.01/l502.exe)
 Keep R1 ints in memory in canonical form, NReq=6407713.
 FoFCou: FMM=F IPFlag=           0 FMFlag=           0 FMFlg1=           0
         NFxFlg=           0 DoJE=F BraDBF=F KetDBF=F FulRan=T
         wScrn=  0.000000 ICntrl=       600 IOpCl=  0 I1Cent=           0 NGrid=           0
         NMat0=    1 NMatS0=     55 NMatT0=    0 NMatD0=    1 NMtDS0=    0 NMtDT0=    0
 Symmetry not used in FoFCou.
 Two-electron integral symmetry not used.
 Closed shell SCF:
 Using DIIS extrapolation, IDIIS=  1040.
 NGot=   402653184 LenX=   402649780 LenY=   402648898
 Requested convergence on RMS density matrix=1.00D-08 within 128 cycles.
 Requested convergence on MAX density matrix=1.00D-06.
 Requested convergence on             energy=1.00D-06.
 No special actions if energy rises.

 Cycle   1  Pass 1  IDiag  1:
 E= -111.225404702507    
 DIIS: error= 7.40D-04 at cycle   1 NSaved=   1.
 NSaved= 1 IEnMin= 1 EnMin= -111.225404702507     IErMin= 1 ErrMin= 7.40D-04
 ErrMax= 7.40D-04  0.00D+00 EMaxC= 1.00D-01 BMatC= 4.05D-06 BMatP= 4.05D-06
 IDIUse=3 WtCom= 9.93D-01 WtEn= 7.40D-03
 Coeff-Com:  0.100D+01
 Coeff-En:   0.100D+01
 Coeff:      0.100D+01
 Gap=     1.447 Goal=   None    Shift=    0.000
 RMSDP=2.67D-04 MaxDP=1.19D-03              OVMax= 0.00D+00

 Cycle   2  Pass 1  IDiag  1:
 E= -111.225408244659     Delta-E=       -0.000003542153 Rises=F Damp=F
 DIIS: error= 1.22D-04 at cycle   2 NSaved=   2.
 NSaved= 2 IEnMin= 2 EnMin= -111.225408244659     IErMin= 2 ErrMin= 1.22D-04
 ErrMax= 1.22D-04  0.00D+00 EMaxC= 1.00D-01 BMatC= 2.80D-07 BMatP= 4.05D-06
 IDIUse=3 WtCom= 9.99D-01 WtEn= 1.22D-03
 Coeff-Com: -0.801D-01 0.108D+01
 Coeff-En:   0.000D+00 0.100D+01
 Coeff:     -0.800D-01 0.108D+01
 Gap=     0.749 Goal=   None    Shift=    0.000
 RMSDP=1.03D-04 MaxDP=3.97D-04 DE=-3.54D-06 OVMax= 0.00D+00

 Cycle   3  Pass 1  IDiag  1:
 E= -111.225408671663     Delta-E=       -0.000000427003 Rises=F Damp=F
 DIIS: error= 1.31D-04 at cycle   3 NSaved=   3.
 NSaved= 3 IEnMin= 3 EnMin= -111.225408671663     IErMin= 2 ErrMin= 1.22D-04
 ErrMax= 1.31D-04  0.00D+00 EMaxC= 1.00D-01 BMatC= 1.79D-07 BMatP= 2.80D-07
 IDIUse=3 WtCom= 9.99D-01 WtEn= 1.31D-03
 Coeff-Com: -0.125D+00 0.471D+00 0.654D+00
 Coeff-En:   0.000D+00 0.000D+00 0.100D+01
 Coeff:     -0.125D+00 0.471D+00 0.654D+00
 Gap=     0.749 Goal=   None    Shift=    0.000
 RMSDP=4.38D-05 MaxDP=2.19D-04 DE=-4.27D-07 OVMax= 0.00D+00

 Cycle   4  Pass 1  IDiag  1:
 E= -111.225408841862     Delta-E=       -0.000000170199 Rises=F Damp=F
 DIIS: error= 2.71D-05 at cycle   4 NSaved=   4.
 NSaved= 4 IEnMin= 4 EnMin= -111.225408841862     IErMin= 4 ErrMin= 2.71D-05
 ErrMax= 2.71D-05  0.00D+00 EMaxC= 1.00D-01 BMatC= 5.89D-09 BMatP= 1.79D-07
 IDIUse=1 WtCom= 1.00D+00 WtEn= 0.00D+00
 Coeff-Com:  0.212D-01-0.172D+00-0.226D+00 0.138D+01
 Coeff:      0.212D-01-0.172D+00-0.226D+00 0.138D+01
 Gap=     0.749 Goal=   None    Shift=    0.000
 RMSDP=2.03D-05 MaxDP=9.86D-05 DE=-1.70D-07 OVMax= 0.00D+00

 Cycle   5  Pass 1  IDiag  1:
 E= -111.225408855657     Delta-E=       -0.000000013795 Rises=F Damp=F
 DIIS: error= 4.10D-06 at cycle   5 NSaved=   5.
 NSaved= 5 IEnMin= 5 EnMin= -111.225408855657     IErMin= 5 ErrMin= 4.10D-06
 ErrMax= 4.10D-06  0.00D+00 EMaxC= 1.00D-01 BMatC= 1.68D-10 BMatP= 5.89D-09
 IDIUse=1 WtCom= 1.00D+00 WtEn= 0.00D+00
 Coeff-Com: -0.423D-02 0.523D-01 0.456D-01-0.492D+00 0.140D+01
 Coeff:     -0.423D-02 0.523D-01 0.456D-01-0.492D+00 0.140D+01
 Gap=     0.749 Goal=   None    Shift=    0.000
 RMSDP=3.98D-06 MaxDP=1.84D-05 DE=-1.38D-08 OVMax= 0.00D+00

 Cycle   6  Pass 1  IDiag  1:
 E= -111.225408855987     Delta-E=       -0.000000000331 Rises=F Damp=F
 DIIS: error= 2.01D-08 at cycle   6 NSaved=   6.
 NSaved= 6 IEnMin= 6 EnMin= -111.225408855987     IErMin= 6 ErrMin= 2.01D-08
 ErrMax= 2.01D-08  0.00D+00 EMaxC= 1.00D-01 BMatC= 3.02D-15 BMatP= 1.68D-10
 IDIUse=1 WtCom= 1.00D+00 WtEn= 0.00D+00
 Coeff-Com:  0.404D-03-0.498D-02-0.443D-02 0.470D-01-0.132D+00 0.109D+01
 Coeff:      0.404D-03-0.498D-02-0.443D-02 0.470D-01-0.132D+00 0.109D+01
 Gap=     0.749 Goal=   None    Shift=    0.000
 RMSDP=8.05D-09 MaxDP=3.77D-08 DE=-3.31D-10 OVMax= 0.00D+00

 SCF Done:  E(RHF) =  -111.225408856     A.U. after    6 cycles
            NFock=  6  Conv=0.81D-08     -V/T= 2.0075
 KE= 1.103932935432D+02 PE=-3.067183103426D+02 EE= 6.299875396075D+01
 Leave Link  502 at Sun Dec 28 17:27:37 2025, MaxMem=   402653184 cpu:               4.4 elap:               0.2
 (Enter /cluster/software/Gaussian/g16_B.01/l801.exe)
 Range of M.O.s used for correlation:     1    10
 NBasis=    10 NAE=     7 NBE=     7 NFC=     0 NFV=     0
 NROrb=     10 NOA=     7 NOB=     7 NVA=     3 NVB=     3
 Leave Link  801 at Sun Dec 28 17:27:37 2025, MaxMem=   402653184 cpu:               0.7 elap:               0.1
 (Enter /cluster/software/Gaussian/g16_B.01/l1002.exe)
 Minotr:  Closed shell wavefunction.
          Direct CPHF calculation.
          Differentiating once with respect to electric field.
                with respect to dipole field.
          Electric field/nuclear overlap derivatives assumed to be zero.
          Requested convergence is 1.0D-08 RMS, and 1.0D-07 maximum.
          Secondary convergence is 1.0D-12 RMS, and 1.0D-12 maximum.
          NewPWx=F KeepS1=T KeepF1=T KeepIn=T MapXYZ=F SortEE=F KeepMc=T.
 Keep R1 ints in memory in canonical form, NReq=6408069.
 FoFCou: FMM=F IPFlag=           0 FMFlag=           0 FMFlg1=           0
         NFxFlg=           0 DoJE=F BraDBF=F KetDBF=F FulRan=T
         wScrn=  0.000000 ICntrl=       600 IOpCl=  0 I1Cent=           0 NGrid=           0
         NMat0=    1 NMatS0=     55 NMatT0=    0 NMatD0=    1 NMtDS0=    0 NMtDT0=    0
 Symmetry not used in FoFCou.
 Two-electron integral symmetry not used.
          MDV=     402653184 using IRadAn=       4.
          Solving linear equations simultaneously, MaxMat=       0.
          There are     3 degrees of freedom in the 1st order CPHF.  IDoFFX=0 NUNeed=     3.
      3 vectors produced by pass  0 Test12= 7.00D-16 3.33D-08 XBig12= 3.12D+00 8.50D-01.
 AX will form     3 AO Fock derivatives at one time.
      3 vectors produced by pass  1 Test12= 7.00D-16 3.33D-08 XBig12= 4.43D-02 1.80D-01.
      3 vectors produced by pass  2 Test12= 7.00D-16 3.33D-08 XBig12= 6.82D-04 2.22D-02.
      3 vectors produced by pass  3 Test12= 7.00D-16 3.33D-08 XBig12= 4.70D-07 5.12D-04.
      3 vectors produced by pass  4 Test12= 7.00D-16 3.33D-08 XBig12= 6.11D-10 1.86D-05.
      3 vectors produced by pass  5 Test12= 7.00D-16 3.33D-08 XBig12= 7.82D-13 6.98D-07.
 InvSVY:  IOpt=1 It=  1 EMax= 2.22D-16
 Solved reduced A of dimension    18 with     3 vectors.
 End of Minotr F.D. properties file   721 does not exist.
 End of Minotr F.D. properties file   722 does not exist.
 End of Minotr F.D. properties file   788 does not exist.
 Leave Link 1002 at Sun Dec 28 17:27:38 2025, MaxMem=   402653184 cpu:               3.5 elap:               0.1
 (Enter /cluster/software/Gaussian/g16_B.01/l1101.exe)
 Using compressed storage, NAtomX=     2.
 Will process      3 centers per pass.
 Leave Link 1101 at Sun Dec 28 17:27:38 2025, MaxMem=   402653184 cpu:               2.4 elap:               0.1
 (Enter /cluster/software/Gaussian/g16_B.01/l1102.exe)
 Symmetrizing basis deriv contribution to polar:
 IMax=3 JMax=2 DiffMx= 0.00D+00
 Leave Link 1102 at Sun Dec 28 17:27:38 2025, MaxMem=   402653184 cpu:               0.8 elap:               0.1
 (Enter /cluster/software/Gaussian/g16_B.01/l1110.exe)
 Forming Gx(P) for the SCF density, NAtomX=     2.
 Integral derivatives from FoFJK, PRISM(SPDF).
 Do as many integral derivatives as possible in FoFJK.
 G2DrvN: MDV=     402652900.
 G2DrvN: will do     3 centers at a time, making    1 passes.
 PxScal for G2LodP:  IOpCl= 0 ISclPx=1 IMOff=     1 NMtTot=     4 NTT=      55 ScalPx= 1.09D+00
 Calling FoFCou, ICntrl=  3107 FMM=F I1Cent=   0 AccDes= 0.00D+00.
 FoFJK:  IHMeth= 1 ICntrl=    3107 DoSepK=F KAlg= 0 I1Cent=           0 FoldK=F
 IRaf=         0 NMat=       1 IRICut=       1 DoRegI=T DoRafI=F ISym2E= 0 IDoP0=0 IntGTp=1.
 FoFCou: FMM=F IPFlag=           0 FMFlag=      100000 FMFlg1=           0
         NFxFlg=           0 DoJE=F BraDBF=F KetDBF=F FulRan=T
         wScrn=  0.000000 ICntrl=      3107 IOpCl=  0 I1Cent=           0 NGrid=           0
         NMat0=    1 NMatS0=      1 NMatT0=    0 NMatD0=    4 NMtDS0=    3 NMtDT0=    0
 Symmetry not used in FoFCou.
 End of G2Drv F.D. properties file   721 does not exist.
 End of G2Drv F.D. properties file   722 does not exist.
 End of G2Drv F.D. properties file   788 does not exist.
 Leave Link 1110 at Sun Dec 28 17:27:38 2025, MaxMem=   402653184 cpu:               3.3 elap:               0.1
 (Enter /cluster/software/Gaussian/g16_B.01/l1002.exe)
 Minotr:  Closed shell wavefunction.
          IDoAtm=11
          Direct CPHF calculation.
          Differentiating once with respect to electric field.
                with respect to dipole field.
          Differentiating once with respect to nuclear coordinates.
          Requested convergence is 1.0D-08 RMS, and 1.0D-07 maximum.
          Secondary convergence is 1.0D-12 RMS, and 1.0D-12 maximum.
          NewPWx=T KeepS1=F KeepF1=F KeepIn=T MapXYZ=F SortEE=F KeepMc=T.
 Keep R1 ints in memory in canonical form, NReq=6408115.
 FoFCou: FMM=F IPFlag=           0 FMFlag=           0 FMFlg1=           0
         NFxFlg=           0 DoJE=F BraDBF=F KetDBF=F FulRan=T
         wScrn=  0.000000 ICntrl=       600 IOpCl=  0 I1Cent=           0 NGrid=           0
         NMat0=    1 NMatS0=     55 NMatT0=    0 NMatD0=    1 NMtDS0=    0 NMtDT0=    0
 Symmetry not used in FoFCou.
 Two-electron integral symmetry not used.
          MDV=     402653184 using IRadAn=       4.
          Solving linear equations simultaneously, MaxMat=       0.
          There are     9 degrees of freedom in the 1st order CPHF.  IDoFFX=5 NUNeed=     9.
 Will reuse    3 saved solutions.
      3 vectors produced by pass  0 Test12= 2.33D-16 1.11D-08 XBig12= 5.40D-02 1.50D-01.
 AX will form     3 AO Fock derivatives at one time.
      3 vectors produced by pass  1 Test12= 2.33D-16 1.11D-08 XBig12= 4.88D-03 3.53D-02.
      3 vectors produced by pass  2 Test12= 2.33D-16 1.11D-08 XBig12= 2.02D-04 1.38D-02.
      3 vectors produced by pass  3 Test12= 2.33D-16 1.11D-08 XBig12= 3.25D-07 5.33D-04.
      3 vectors produced by pass  4 Test12= 2.33D-16 1.11D-08 XBig12= 9.89D-11 8.62D-06.
      3 vectors produced by pass  5 Test12= 2.33D-16 1.11D-08 XBig12= 2.09D-13 4.29D-07.
 InvSVY:  IOpt=1 It=  1 EMax= 2.22D-16
 Solved reduced A of dimension    18 with     3 vectors.
 FullF1:  Do perturbations      1 to       3.
 Isotropic polarizability for W=    0.000000        4.52 Bohr**3.
 FullF1:  Do perturbations      1 to       6.
 End of Minotr F.D. properties file   721 does not exist.
 End of Minotr F.D. properties file   722 does not exist.
 End of Minotr F.D. properties file   788 does not exist.
 Leave Link 1002 at Sun Dec 28 17:27:38 2025, MaxMem=   402653184 cpu:               4.4 elap:               0.2
 (Enter /cluster/software/Gaussian/g16_B.01/l601.exe)
 Copying SCF densities to generalized density rwf, IOpCl= 0 IROHF=0.

 **********************************************************************

            Population analysis using the SCF Density.

 **********************************************************************

 Alpha  occ. eigenvalues --  -20.41366 -11.09196  -1.44206  -0.69627  -0.53749
 Alpha  occ. eigenvalues --   -0.53749  -0.44483
 Alpha virt. eigenvalues --    0.30457   0.30457   1.00237
          Condensed to atoms (all electrons):
               1          2
     1  O    7.677470   0.521142
     2  C    0.521142   5.280247
 Mulliken charges:
               1
     1  O   -0.198612
     2  C    0.198612
 Sum of Mulliken charges =  -0.00000
 Mulliken charges with hydrogens summed into heavy atoms:
               1
     1  O   -0.198612
     2  C    0.198612
 APT charges:
               1
     1  O   -0.166188
     2  C    0.166188
 Sum of APT charges =  -0.00000
 APT charges with hydrogens summed into heavy atoms:
               1
     1  O   -0.166188
     2  C    0.166188
 Electronic spatial extent (au):  <R**2>=             37.8296
 Charge=             -0.0000 electrons
 Dipole moment (field-independent basis, Debye):
    X=             -0.0000    Y=             -0.0000    Z=              0.1145  Tot=              0.1145
 Quadrupole moment (field-independent basis, Debye-Ang):
   XX=             -8.7055   YY=             -8.7055   ZZ=            -11.7186
   XY=             -0.0000   XZ=              0.0000   YZ=              0.0000
 Traceless Quadrupole moment (field-independent basis, Debye-Ang):
   XX=              1.0044   YY=              1.0044   ZZ=             -2.0088
   XY=             -0.0000   XZ=              0.0000   YZ=              0.0000
 Octapole moment (field-independent basis, Debye-Ang**2):
  XXX=             -0.0000  YYY=             -0.0000  ZZZ=              5.8114  XYY=             -0.0000
  XXY=             -0.0000  XXZ=              0.9955  XZZ=             -0.0000  YZZ=             -0.0000
  YYZ=              0.9955  XYZ=              0.0000
 Hexadecapole moment (field-independent basis, Debye-Ang**3):
 XXXX=             -5.3786 YYYY=             -5.3786 ZZZZ=            -30.3960 XXXY=             -0.0000
 XXXZ=              0.0000 YYYX=             -0.0000 YYYZ=              0.0000 ZZZX=              0.0000
 ZZZY=              0.0000 XXYY=             -1.7929 XXZZ=             -5.2488 YYZZ=             -5.2488
 XXYZ=              0.0000 YYXZ=              0.0000 ZZXY=             -0.0000
 N-N= 2.210085398270D+01 E-N=-3.067183102754D+02  KE= 1.103932935432D+02
  Exact polarizability:   3.478  -0.000   3.478   0.000   0.000   6.600
 Approx polarizability:   2.390   0.000   2.390   0.000   0.000  11.397
 No NMR shielding tensors so no spin-rotation constants.
 Leave Link  601 at Sun Dec 28 17:27:39 2025, MaxMem=   402653184 cpu:               2.6 elap:               0.1
 (Enter /cluster/software/Gaussian/g16_B.01/l701.exe)
 SCFChk:  SCF convergence  8.05D-09 required  1.00D-08
 ... and contract with generalized density number  0.
 Compute integral second derivatives.
 Entering OneElI...
 Calculate overlap and kinetic energy integrals
    NBasis =  10  MinDer = 2  MaxDer = 2
 Requested accuracy = 0.1000D-12
 PrmmSu-InSpLW:  IPartL=    0 NPrtUS=   32 NPrtUL=    1 DoSpLW=F IThBeg=    0 IThEnd=   31 NThAct=   32.
 PrSmSu:  IncTry=   512 NBBP=             10 NTPThr=   100 NPartT=   32 Incr=           1 LDynOK=F GPUOK=F.
 PrsmSu:  NPrtUS=  32 ThrOK=T IAlg=2 LenDen=           0 ISkipM=0 DoSpLW=F IThBeg=    0 IThEnd=   31.
 Prism:   IPart=     0 DynPar=F LinDyn=F Incr=           1.
 PRISM was handed    12581430 working-precision words and    10 shell-pairs
 PRISM was handed    12581430 working-precision words and    10 shell-pairs
 PRISM was handed    12581430 working-precision words and    10 shell-pairs
 PRISM was handed    12581430 working-precision words and    10 shell-pairs
 PRISM was handed    12581430 working-precision words and    10 shell-pairs
 PRISM was handed    12581430 working-precision words and    10 shell-pairs
 PRISM was handed    12581430 working-precision words and    10 shell-pairs
 PRISM was handed    12581430 working-precision words and    10 shell-pairs
 PRISM was handed    12581430 working-precision words and    10 shell-pairs
 PRISM was handed    12581430 working-precision words and    10 shell-pairs
 PRISM was handed    12581430 working-precision words and    10 shell-pairs
 PRISM was handed    12581430 working-precision words and    10 shell-pairs
 PRISM was handed    12581430 working-precision words and    10 shell-pairs
 PRISM was handed    12581430 working-precision words and    10 shell-pairs
 PRISM was handed    12581430 working-precision words and    10 shell-pairs
 PRISM was handed    12581430 working-precision words and    10 shell-pairs
 PRISM was handed    12581430 working-precision words and    10 shell-pairs
 PRISM was handed    12581430 working-precision words and    10 shell-pairs
 PRISM was handed    12581430 working-precision words and    10 shell-pairs
 PRISM was handed    12581430 working-precision words and    10 shell-pairs
 PRISM was handed    12581430 working-precision words and    10 shell-pairs
 PRISM was handed    12581430 working-precision words and    10 shell-pairs
 PRISM was handed    12581430 working-precision words and    10 shell-pairs
 PRISM was handed    12581430 working-precision words and    10 shell-pairs
 PRISM was handed    12581430 working-precision words and    10 shell-pairs
 PRISM was handed    12581430 working-precision words and    10 shell-pairs
 PRISM was handed    12581430 working-precision words and    10 shell-pairs
 PRISM was handed    12581430 working-precision words and    10 shell-pairs
 PRISM was handed    12581430 working-precision words and    10 shell-pairs
 PRISM was handed    12581430 working-precision words and    10 shell-pairs
 PRISM was handed    12581430 working-precision words and    10 shell-pairs
 PRISM was handed    12581430 working-precision words and    10 shell-pairs
 IPart= 12 NShTot=           0 NBatch=           0 AvBLen=         0.0
 IPart=  6 NShTot=           0 NBatch=           0 AvBLen=         0.0
 IPart= 17 NShTot=           0 NBatch=           0 AvBLen=         0.0
 IPart=  9 NShTot=           0 NBatch=           0 AvBLen=         0.0
 IPart= 22 NShTot=           0 NBatch=           0 AvBLen=         0.0
 IPart= 14 NShTot=           0 NBatch=           0 AvBLen=         0.0
 IPart= 23 NShTot=           0 NBatch=           0 AvBLen=         0.0
 IPart= 11 NShTot=           0 NBatch=           0 AvBLen=         0.0
 IPart= 16 NShTot=           0 NBatch=           0 AvBLen=         0.0
 IPart= 28 NShTot=           0 NBatch=           0 AvBLen=         0.0
 IPart= 20 NShTot=           0 NBatch=           0 AvBLen=         0.0
 IPart=  7 NShTot=           0 NBatch=           0 AvBLen=         0.0
 IPart= 24 NShTot=           0 NBatch=           0 AvBLen=         0.0
 IPart=  4 NShTot=           0 NBatch=           0 AvBLen=         0.0
 IPart= 18 NShTot=           0 NBatch=           0 AvBLen=         0.0
 IPart= 30 NShTot=           0 NBatch=           0 AvBLen=         0.0
 IPart= 10 NShTot=           0 NBatch=           0 AvBLen=         0.0
 IPart= 26 NShTot=           0 NBatch=           0 AvBLen=         0.0
 IPart=  3 NShTot=           1 NBatch=           1 AvBLen=         1.0
 IPart=  2 NShTot=           2 NBatch=           2 AvBLen=         1.0
 IPart=  1 NShTot=           3 NBatch=           3 AvBLen=         1.0
 IPart=  0 NShTot=           4 NBatch=           4 AvBLen=         1.0
 IPart= 25 NShTot=           0 NBatch=           0 AvBLen=         0.0
 IPart=  8 NShTot=           0 NBatch=           0 AvBLen=         0.0
 IPart= 21 NShTot=           0 NBatch=           0 AvBLen=         0.0
 IPart= 19 NShTot=           0 NBatch=           0 AvBLen=         0.0
 IPart= 15 NShTot=           0 NBatch=           0 AvBLen=         0.0
 IPart= 31 NShTot=           0 NBatch=           0 AvBLen=         0.0
 IPart=  5 NShTot=           0 NBatch=           0 AvBLen=         0.0
 IPart= 29 NShTot=           0 NBatch=           0 AvBLen=         0.0
 IPart= 13 NShTot=           0 NBatch=           0 AvBLen=         0.0
 IPart= 27 NShTot=           0 NBatch=           0 AvBLen=         0.0
 PrSmSu:  NxtVal=             33.
 Entering OneElI...
 Calculate potential energy integrals
    NBasis =  10  MinDer = 2  MaxDer = 2
 Requested accuracy = 0.1000D-12
 PrmmSu-InSpLW:  IPartL=    0 NPrtUS=   32 NPrtUL=    1 DoSpLW=F IThBeg=    0 IThEnd=   31 NThAct=   32.
 PrSmSu:  IncTry=   512 NBBP=             20 NTPThr=   100 NPartT=   32 Incr=           1 LDynOK=F GPUOK=F.
 PrsmSu:  NPrtUS=  32 ThrOK=T IAlg=2 LenDen=           0 ISkipM=0 DoSpLW=F IThBeg=    0 IThEnd=   31.
 Prism:   IPart=     0 DynPar=F LinDyn=F Incr=           1.
 PRISM was handed    12581437 working-precision words and    10 shell-pairs
 PRISM was handed    12581437 working-precision words and    10 shell-pairs
 PRISM was handed    12581437 working-precision words and    10 shell-pairs
 PRISM was handed    12581437 working-precision words and    10 shell-pairs
 PRISM was handed    12581437 working-precision words and    10 shell-pairs
 PRISM was handed    12581437 working-precision words and    10 shell-pairs
 PRISM was handed    12581437 working-precision words and    10 shell-pairs
 PRISM was handed    12581437 working-precision words and    10 shell-pairs
 PRISM was handed    12581437 working-precision words and    10 shell-pairs
 PRISM was handed    12581437 working-precision words and    10 shell-pairs
 PRISM was handed    12581437 working-precision words and    10 shell-pairs
 PRISM was handed    12581437 working-precision words and    10 shell-pairs
 PRISM was handed    12581437 working-precision words and    10 shell-pairs
 PRISM was handed    12581437 working-precision words and    10 shell-pairs
 PRISM was handed    12581437 working-precision words and    10 shell-pairs
 PRISM was handed    12581437 working-precision words and    10 shell-pairs
 PRISM was handed    12581437 working-precision words and    10 shell-pairs
 PRISM was handed    12581437 working-precision words and    10 shell-pairs
 PRISM was handed    12581437 working-precision words and    10 shell-pairs
 PRISM was handed    12581437 working-precision words and    10 shell-pairs
 PRISM was handed    12581437 working-precision words and    10 shell-pairs
 PRISM was handed    12581437 working-precision words and    10 shell-pairs
 PRISM was handed    12581437 working-precision words and    10 shell-pairs
 PRISM was handed    12581437 working-precision words and    10 shell-pairs
 PRISM was handed    12581437 working-precision words and    10 shell-pairs
 PRISM was handed    12581437 working-precision words and    10 shell-pairs
 PRISM was handed    12581437 working-precision words and    10 shell-pairs
 PRISM was handed    12581437 working-precision words and    10 shell-pairs
 PRISM was handed    12581437 working-precision words and    10 shell-pairs
 PRISM was handed    12581437 working-precision words and    10 shell-pairs
 PRISM was handed    12581437 working-precision words and    10 shell-pairs
 PRISM was handed    12581437 working-precision words and    10 shell-pairs
 IPart=  9 NShTot=           0 NBatch=           0 AvBLen=         0.0
 IPart= 17 NShTot=           0 NBatch=           0 AvBLen=         0.0
 IPart=  6 NShTot=           0 NBatch=           0 AvBLen=         0.0
 IPart= 23 NShTot=           0 NBatch=           0 AvBLen=         0.0
 IPart= 20 NShTot=           0 NBatch=           0 AvBLen=         0.0
 IPart= 18 NShTot=           0 NBatch=           0 AvBLen=         0.0
 IPart=  7 NShTot=           0 NBatch=           0 AvBLen=         0.0
 IPart= 11 NShTot=           0 NBatch=           0 AvBLen=         0.0
 IPart=  3 NShTot=           2 NBatch=           1 AvBLen=         2.0
 IPart= 24 NShTot=           0 NBatch=           0 AvBLen=         0.0
 IPart= 22 NShTot=           0 NBatch=           0 AvBLen=         0.0
 IPart= 28 NShTot=           0 NBatch=           0 AvBLen=         0.0
 IPart= 14 NShTot=           0 NBatch=           0 AvBLen=         0.0
 IPart= 12 NShTot=           0 NBatch=           0 AvBLen=         0.0
 IPart=  4 NShTot=           0 NBatch=           0 AvBLen=         0.0
 IPart= 16 NShTot=           0 NBatch=           0 AvBLen=         0.0
 IPart= 30 NShTot=           0 NBatch=           0 AvBLen=         0.0
 IPart= 10 NShTot=           0 NBatch=           0 AvBLen=         0.0
 IPart= 26 NShTot=           0 NBatch=           0 AvBLen=         0.0
 IPart=  2 NShTot=           4 NBatch=           2 AvBLen=         2.0
 IPart=  1 NShTot=           6 NBatch=           3 AvBLen=         2.0
 IPart=  0 NShTot=           8 NBatch=           4 AvBLen=         2.0
 IPart= 31 NShTot=           0 NBatch=           0 AvBLen=         0.0
 IPart= 15 NShTot=           0 NBatch=           0 AvBLen=         0.0
 IPart= 13 NShTot=           0 NBatch=           0 AvBLen=         0.0
 IPart= 27 NShTot=           0 NBatch=           0 AvBLen=         0.0
 IPart= 29 NShTot=           0 NBatch=           0 AvBLen=         0.0
 IPart=  5 NShTot=           0 NBatch=           0 AvBLen=         0.0
 IPart= 21 NShTot=           0 NBatch=           0 AvBLen=         0.0
 IPart= 19 NShTot=           0 NBatch=           0 AvBLen=         0.0
 IPart= 25 NShTot=           0 NBatch=           0 AvBLen=         0.0
 IPart=  8 NShTot=           0 NBatch=           0 AvBLen=         0.0
 PrSmSu:  NxtVal=             33.
 Polarizability after L701:
                1             2             3 
      1  0.347836D+01
      2  0.000000D+00  0.347836D+01
      3  0.000000D+00  0.000000D+00  0.660006D+01
 Dipole Derivatives after L701:
                 1             2             3             4             5 
      1   0.207413D-01  0.000000D+00  0.000000D+00 -0.207413D-01  0.000000D+00
      2   0.000000D+00  0.207413D-01  0.000000D+00  0.000000D+00 -0.207413D-01
      3   0.000000D+00  0.000000D+00 -0.540046D+00  0.000000D+00  0.000000D+00
                 6 
      1   0.000000D+00
      2   0.000000D+00
      3   0.540046D+00
 Hessian after L701:
                1             2             3             4             5 
      1  0.107817D+02
      2  0.000000D+00  0.107817D+02
      3  0.000000D+00  0.000000D+00 -0.248133D+01
      4 -0.107817D+02  0.000000D+00  0.000000D+00  0.107817D+02
      5  0.000000D+00 -0.107817D+02  0.000000D+00  0.000000D+00  0.107817D+02
      6  0.000000D+00  0.000000D+00  0.248133D+01  0.000000D+00  0.000000D+00
                6 
      6 -0.248133D+01
 Leave Link  701 at Sun Dec 28 17:27:39 2025, MaxMem=   402653184 cpu:               3.0 elap:               0.1
 (Enter /cluster/software/Gaussian/g16_B.01/l702.exe)
 L702 exits ... SP integral derivatives will be done elsewhere.
 Leave Link  702 at Sun Dec 28 17:27:39 2025, MaxMem=   402653184 cpu:               0.6 elap:               0.1
 (Enter /cluster/software/Gaussian/g16_B.01/l703.exe)
 Integral derivatives from FoFJK, PRISM(SPDF).
 Compute integral second derivatives, UseDBF=F ICtDFT=           0.
 ICntrl=    100127.
 Calling FoFJK, ICntrl=    100127 FMM=F ISym2X=0 I1Cent= 0 IOpClX= 0 NMat=1 NMatS=1 NMatT=0.
 FoFJK:  IHMeth= 1 ICntrl=  100127 DoSepK=F KAlg= 0 I1Cent=           0 FoldK=F
 IRaf=         0 NMat=       1 IRICut=       1 DoRegI=T DoRafI=F ISym2E= 0 IDoP0=0 IntGTp=1.
 FoFCou: FMM=F IPFlag=           0 FMFlag=      100000 FMFlg1=         800
         NFxFlg=           0 DoJE=F BraDBF=F KetDBF=F FulRan=T
         wScrn=  0.000000 ICntrl=    100127 IOpCl=  0 I1Cent=           0 NGrid=           0
         NMat0=    1 NMatS0=      1 NMatT0=    0 NMatD0=    1 NMtDS0=    0 NMtDT0=    0
 Symmetry not used in FoFCou.
 FoFCou:  KetSym=F NOpSet=  1 NOpAb=1 NOp=  1.
 FoFCou:  CnvScl= 1.00D+00 Thresh= 1.00D-12 IAcrcy=      10.
 PrismS was handed   402650459 working-precision words and    10 shell-pairs
 FoFCou: LinMIO=F DoNuc=F BraDBF=F KetDBF=F HaveP=T PDBF=F HaveZ=T HaveW=F
         NIJTC =       3 NIJTAt=       0 NIJTCD=       0 NIJTT =       3
         IJTBeg=       1 IJTEnd=       3 KLTBeg=       1 KLTEnd=       3
         IPTBeg=       1 IPTEnd=       3 IPTBCv=       1 IPTECv=       3
         IZTBeg=       1 IZTEnd=       3 IZTBCv=       1 IZTECv=       3
         IWTBeg=       4 IWTEnd=       3 IWTBCv=       4 IWTECv=       3
         INTBeg=       1 INTEnd=       0 IFTBCv=       1 IFTECv=       3
 NCel replicated for PrismC:     1
 CoulSu-InSpLW:  IPartL=    0 NPrtUS=   32 NPrtUL=    1 DoSpLW=F IThBeg=    0 IThEnd=   31 NThAct=   32.
 CoulSu:  IncTry=  1024 NBBP=             55 NTPThr=   100 NPartT=   32 Incr=           1 LDynOK=F GPUOK=F.
 CoulSu:  NPrtUS=  32 ThrOK=T IAlg=2 LenDen=           0 LWGrdD=           0 DoCopy=F ISkipM=0
          DoSpLW=F IThBeg=    0 IThEnd=   31.
 Enter PrismC:  IPart=  0 JobTyp=22 DoJE=F Cont=F.
 PrismC:  IPart=     0 DynPar=F LinDyn=F Incr=           1 UseFst=F UseS4=T ISplat=2.
 PrismC was handed    12581459 working-precision words and    10 shell-pairs
 Enter PrismC:  IPart= 16 JobTyp=22 DoJE=F Cont=F.
 Enter PrismC:  IPart= 18 JobTyp=22 DoJE=F Cont=F.
 Enter PrismC:  IPart=  6 JobTyp=22 DoJE=F Cont=F.
 PrismC:  IPart=    16 DynPar=F LinDyn=F Incr=           1 UseFst=F UseS4=T ISplat=2.
 PrismC was handed    12581459 working-precision words and    10 shell-pairs
 PrismC:  IPart=    18 DynPar=F LinDyn=F Incr=           1 UseFst=F UseS4=T ISplat=2.
 PrismC was handed    12581459 working-precision words and    10 shell-pairs
 Enter PrismC:  IPart=  2 JobTyp=22 DoJE=F Cont=F.
 PrismC:  IPart=     6 DynPar=F LinDyn=F Incr=           1 UseFst=F UseS4=T ISplat=2.
 PrismC:  IPart=     2 DynPar=F LinDyn=F Incr=           1 UseFst=F UseS4=T ISplat=2.
 PrismC was handed    12581459 working-precision words and    10 shell-pairs
 PrismC was handed    12581459 working-precision words and    10 shell-pairs
 Enter PrismC:  IPart= 24 JobTyp=22 DoJE=F Cont=F.
 Enter PrismC:  IPart= 10 JobTyp=22 DoJE=F Cont=F.
 PrismC:  IPart=    24 DynPar=F LinDyn=F Incr=           1 UseFst=F UseS4=T ISplat=2.
 PrismC was handed    12581459 working-precision words and    10 shell-pairs
 PrismC:  IPart=    10 DynPar=F LinDyn=F Incr=           1 UseFst=F UseS4=T ISplat=2.
 PrismC was handed    12581459 working-precision words and    10 shell-pairs
 Enter PrismC:  IPart= 30 JobTyp=22 DoJE=F Cont=F.
 Enter PrismC:  IPart= 26 JobTyp=22 DoJE=F Cont=F.
 PrismC:  IPart=    30 DynPar=F LinDyn=F Incr=           1 UseFst=F UseS4=T ISplat=2.
 PrismC was handed    12581459 working-precision words and    10 shell-pairs
 PrismC:  IPart=    26 DynPar=F LinDyn=F Incr=           1 UseFst=F UseS4=T ISplat=2.
 PrismC was handed    12581459 working-precision words and    10 shell-pairs
 Enter PrismC:  IPart=  1 JobTyp=22 DoJE=F Cont=F.
 Enter PrismC:  IPart=  4 JobTyp=22 DoJE=F Cont=F.
 PrismC:  IPart=     1 DynPar=F LinDyn=F Incr=           1 UseFst=F UseS4=T ISplat=2.
 PrismC was handed    12581459 working-precision words and    10 shell-pairs
 PrismC:  IPart=     4 DynPar=F LinDyn=F Incr=           1 UseFst=F UseS4=T ISplat=2.
 PrismC was handed    12581459 working-precision words and    10 shell-pairs
 Enter PrismC:  IPart= 27 JobTyp=22 DoJE=F Cont=F.
 PrismC:  IPart=    27 DynPar=F LinDyn=F Incr=           1 UseFst=F UseS4=T ISplat=2.
 PrismC was handed    12581459 working-precision words and    10 shell-pairs
 Enter PrismC:  IPart=  5 JobTyp=22 DoJE=F Cont=F.
 PrismC:  IPart=     5 DynPar=F LinDyn=F Incr=           1 UseFst=F UseS4=T ISplat=2.
 PrismC was handed    12581459 working-precision words and    10 shell-pairs
 Enter PrismC:  IPart= 12 JobTyp=22 DoJE=F Cont=F.
 Enter PrismC:  IPart=  3 JobTyp=22 DoJE=F Cont=F.
 PrismC:  IPart=    12 DynPar=F LinDyn=F Incr=           1 UseFst=F UseS4=T ISplat=2.
 PrismC was handed    12581459 working-precision words and    10 shell-pairs
 PrismC:  IPart=     3 DynPar=F LinDyn=F Incr=           1 UseFst=F UseS4=T ISplat=2.
 PrismC was handed    12581459 working-precision words and    10 shell-pairs
 Enter PrismC:  IPart=  7 JobTyp=22 DoJE=F Cont=F.
 Enter PrismC:  IPart= 14 JobTyp=22 DoJE=F Cont=F.
 PrismC:  IPart=     7 DynPar=F LinDyn=F Incr=           1 UseFst=F UseS4=T ISplat=2.
 PrismC was handed    12581459 working-precision words and    10 shell-pairs
 PrismC:  IPart=    14 DynPar=F LinDyn=F Incr=           1 UseFst=F UseS4=T ISplat=2.
 PrismC was handed    12581459 working-precision words and    10 shell-pairs
 Enter PrismC:  IPart=  8 JobTyp=22 DoJE=F Cont=F.
 PrismC:  IPart=     8 DynPar=F LinDyn=F Incr=           1 UseFst=F UseS4=T ISplat=2.
 PrismC was handed    12581459 working-precision words and    10 shell-pairs
 Enter PrismC:  IPart= 21 JobTyp=22 DoJE=F Cont=F.
 Enter PrismC:  IPart= 28 JobTyp=22 DoJE=F Cont=F.
 PrismC:  IPart=    21 DynPar=F LinDyn=F Incr=           1 UseFst=F UseS4=T ISplat=2.
 PrismC was handed    12581459 working-precision words and    10 shell-pairs
 PrismC:  IPart=    28 DynPar=F LinDyn=F Incr=           1 UseFst=F UseS4=T ISplat=2.
 PrismC was handed    12581459 working-precision words and    10 shell-pairs
 Enter PrismC:  IPart= 22 JobTyp=22 DoJE=F Cont=F.
 Enter PrismC:  IPart= 25 JobTyp=22 DoJE=F Cont=F.
 PrismC:  IPart=    22 DynPar=F LinDyn=F Incr=           1 UseFst=F UseS4=T ISplat=2.
 Enter PrismC:  IPart= 20 JobTyp=22 DoJE=F Cont=F.
 PrismC was handed    12581459 working-precision words and    10 shell-pairs
 Enter PrismC:  IPart= 13 JobTyp=22 DoJE=F Cont=F.
 PrismC:  IPart=    25 DynPar=F LinDyn=F Incr=           1 UseFst=F UseS4=T ISplat=2.
 PrismC was handed    12581459 working-precision words and    10 shell-pairs
 PrismC:  IPart=    13 DynPar=F LinDyn=F Incr=           1 UseFst=F UseS4=T ISplat=2.
 Enter PrismC:  IPart= 29 JobTyp=22 DoJE=F Cont=F.
 Enter PrismC:  IPart= 19 JobTyp=22 DoJE=F Cont=F.
 PrismC was handed    12581459 working-precision words and    10 shell-pairs
 PrismC:  IPart=    20 DynPar=F LinDyn=F Incr=           1 UseFst=F UseS4=T ISplat=2.
 PrismC was handed    12581459 working-precision words and    10 shell-pairs
 Enter PrismC:  IPart= 31 JobTyp=22 DoJE=F Cont=F.
 PrismC:  IPart=    19 DynPar=F LinDyn=F Incr=           1 UseFst=F UseS4=T ISplat=2.
 PrismC was handed    12581459 working-precision words and    10 shell-pairs
 Enter PrismC:  IPart= 15 JobTyp=22 DoJE=F Cont=F.
 PrismC:  IPart=    29 DynPar=F LinDyn=F Incr=           1 UseFst=F UseS4=T ISplat=2.
 PrismC was handed    12581459 working-precision words and    10 shell-pairs
 PrismC:  IPart=    15 DynPar=F LinDyn=F Incr=           1 UseFst=F UseS4=T ISplat=2.
 Enter PrismC:  IPart=  9 JobTyp=22 DoJE=F Cont=F.
 PrismC:  IPart=    31 DynPar=F LinDyn=F Incr=           1 UseFst=F UseS4=T ISplat=2.
 PrismC:  IPart=     9 DynPar=F LinDyn=F Incr=           1 UseFst=F UseS4=T ISplat=2.
 PrismC was handed    12581459 working-precision words and    10 shell-pairs
 PrismC was handed    12581459 working-precision words and    10 shell-pairs
 PrismC was handed    12581459 working-precision words and    10 shell-pairs
 Enter PrismC:  IPart= 23 JobTyp=22 DoJE=F Cont=F.
 PrismC:  IPart=    23 DynPar=F LinDyn=F Incr=           1 UseFst=F UseS4=T ISplat=2.
 PrismC was handed    12581459 working-precision words and    10 shell-pairs
 Enter PrismC:  IPart= 17 JobTyp=22 DoJE=F Cont=F.
 PrismC:  IPart=    17 DynPar=F LinDyn=F Incr=           1 UseFst=F UseS4=T ISplat=2.
 PrismC was handed    12581459 working-precision words and    10 shell-pairs
 Enter PrismC:  IPart= 11 JobTyp=22 DoJE=F Cont=F.
 PrismC:  IPart=    11 DynPar=F LinDyn=F Incr=           1 UseFst=F UseS4=T ISplat=2.
 PrismC was handed    12581459 working-precision words and    10 shell-pairs
 IPart= 21 NShTot=           0 NShNF=           0 NShFF=           0 MinMC=      10
           NShCPU=           0 NBCPU=           0 AvBCPU=         0.0
           NShGPU=           0 NBGPU=           0 AvBGPU=         0.0
 IPart= 19 NShTot=           0 NShNF=           0 NShFF=           0 MinMC=      10
           NShCPU=           0 NBCPU=           0 AvBCPU=         0.0
           NShGPU=           0 NBGPU=           0 AvBGPU=         0.0
 IPart= 23 NShTot=           0 NShNF=           0 NShFF=           0 MinMC=      10
           NShCPU=           0 NBCPU=           0 AvBCPU=         0.0
           NShGPU=           0 NBGPU=           0 AvBGPU=         0.0
 IPart= 17 NShTot=           0 NShNF=           0 NShFF=           0 MinMC=      10
           NShCPU=           0 NBCPU=           0 AvBCPU=         0.0
           NShGPU=           0 NBGPU=           0 AvBGPU=         0.0
 IPart= 16 NShTot=           0 NShNF=           0 NShFF=           0 MinMC=      10
           NShCPU=           0 NBCPU=           0 AvBCPU=         0.0
           NShGPU=           0 NBGPU=           0 AvBGPU=         0.0
 IPart= 15 NShTot=           1 NShNF=           1 NShFF=           0 MinMC=      10
           NShCPU=           1 NBCPU=           1 AvBCPU=         1.0
           NShGPU=           0 NBGPU=           0 AvBGPU=         0.0
 IPart=  9 NShTot=           2 NShNF=           2 NShFF=           0 MinMC=      10
           NShCPU=           2 NBCPU=           2 AvBCPU=         1.0
           NShGPU=           0 NBGPU=           0 AvBGPU=         0.0
 IPart= 18 NShTot=           0 NShNF=           0 NShFF=           0 MinMC=      10
           NShCPU=           0 NBCPU=           0 AvBCPU=         0.0
           NShGPU=           0 NBGPU=           0 AvBGPU=         0.0
 IPart= 26 NShTot=           0 NShNF=           0 NShFF=           0 MinMC=      10
           NShCPU=           0 NBCPU=           0 AvBCPU=         0.0
           NShGPU=           0 NBGPU=           0 AvBGPU=         0.0
 IPart= 30 NShTot=           0 NShNF=           0 NShFF=           0 MinMC=      10
           NShCPU=           0 NBCPU=           0 AvBCPU=         0.0
           NShGPU=           0 NBGPU=           0 AvBGPU=         0.0
 IPart= 11 NShTot=           1 NShNF=           1 NShFF=           0 MinMC=      10
           NShCPU=           1 NBCPU=           1 AvBCPU=         1.0
           NShGPU=           0 NBGPU=           0 AvBGPU=         0.0
 IPart= 24 NShTot=           0 NShNF=           0 NShFF=           0 MinMC=      10
           NShCPU=           0 NBCPU=           0 AvBCPU=         0.0
           NShGPU=           0 NBGPU=           0 AvBGPU=         0.0
 IPart= 20 NShTot=           0 NShNF=           0 NShFF=           0 MinMC=      10
           NShCPU=           0 NBCPU=           0 AvBCPU=         0.0
           NShGPU=           0 NBGPU=           0 AvBGPU=         0.0
 IPart= 28 NShTot=           0 NShNF=           0 NShFF=           0 MinMC=      10
           NShCPU=           0 NBCPU=           0 AvBCPU=         0.0
           NShGPU=           0 NBGPU=           0 AvBGPU=         0.0
 IPart= 14 NShTot=           1 NShNF=           1 NShFF=           0 MinMC=      10
           NShCPU=           1 NBCPU=           1 AvBCPU=         1.0
           NShGPU=           0 NBGPU=           0 AvBGPU=         0.0
 IPart= 22 NShTot=           0 NShNF=           0 NShFF=           0 MinMC=      10
           NShCPU=           0 NBCPU=           0 AvBCPU=         0.0
           NShGPU=           0 NBGPU=           0 AvBGPU=         0.0
 IPart= 12 NShTot=           1 NShNF=           1 NShFF=           0 MinMC=      10
           NShCPU=           1 NBCPU=           1 AvBCPU=         1.0
           NShGPU=           0 NBGPU=           0 AvBGPU=         0.0
 IPart= 10 NShTot=           2 NShNF=           2 NShFF=           0 MinMC=      10
           NShCPU=           2 NBCPU=           2 AvBCPU=         1.0
           NShGPU=           0 NBGPU=           0 AvBGPU=         0.0
 IPart=  2 NShTot=           6 NShNF=           6 NShFF=           0 MinMC=      10
           NShCPU=           6 NBCPU=           6 AvBCPU=         1.0
           NShGPU=           0 NBGPU=           0 AvBGPU=         0.0
 IPart=  1 NShTot=           6 NShNF=           6 NShFF=           0 MinMC=      10
           NShCPU=           6 NBCPU=           6 AvBCPU=         1.0
           NShGPU=           0 NBGPU=           0 AvBGPU=         0.0
 IPart=  8 NShTot=           3 NShNF=           3 NShFF=           0 MinMC=      10
           NShCPU=           3 NBCPU=           3 AvBCPU=         1.0
           NShGPU=           0 NBGPU=           0 AvBGPU=         0.0
 IPart=  6 NShTot=           3 NShNF=           3 NShFF=           0 MinMC=      10
           NShCPU=           3 NBCPU=           3 AvBCPU=         1.0
           NShGPU=           0 NBGPU=           0 AvBGPU=         0.0
 IPart=  0 NShTot=          10 NShNF=          10 NShFF=           0 MinMC=      10
           NShCPU=          10 NBCPU=          10 AvBCPU=         1.0
           NShGPU=           0 NBGPU=           0 AvBGPU=         0.0
 IPart=  4 NShTot=           5 NShNF=           5 NShFF=           0 MinMC=      10
           NShCPU=           5 NBCPU=           5 AvBCPU=         1.0
           NShGPU=           0 NBGPU=           0 AvBGPU=         0.0
 IPart= 31 NShTot=           0 NShNF=           0 NShFF=           0 MinMC=      10
           NShCPU=           0 NBCPU=           0 AvBCPU=         0.0
           NShGPU=           0 NBGPU=           0 AvBGPU=         0.0
 IPart= 25 NShTot=           0 NShNF=           0 NShFF=           0 MinMC=      10
           NShCPU=           0 NBCPU=           0 AvBCPU=         0.0
           NShGPU=           0 NBGPU=           0 AvBGPU=         0.0
 IPart= 27 NShTot=           0 NShNF=           0 NShFF=           0 MinMC=      10
           NShCPU=           0 NBCPU=           0 AvBCPU=         0.0
           NShGPU=           0 NBGPU=           0 AvBGPU=         0.0
 IPart= 13 NShTot=           1 NShNF=           1 NShFF=           0 MinMC=      10
           NShCPU=           1 NBCPU=           1 AvBCPU=         1.0
           NShGPU=           0 NBGPU=           0 AvBGPU=         0.0
 IPart= 29 NShTot=           0 NShNF=           0 NShFF=           0 MinMC=      10
           NShCPU=           0 NBCPU=           0 AvBCPU=         0.0
           NShGPU=           0 NBGPU=           0 AvBGPU=         0.0
 IPart=  5 NShTot=           4 NShNF=           4 NShFF=           0 MinMC=      10
           NShCPU=           4 NBCPU=           4 AvBCPU=         1.0
           NShGPU=           0 NBGPU=           0 AvBGPU=         0.0
 IPart=  7 NShTot=           3 NShNF=           3 NShFF=           0 MinMC=      10
           NShCPU=           3 NBCPU=           3 AvBCPU=         1.0
           NShGPU=           0 NBGPU=           0 AvBGPU=         0.0
 IPart=  3 NShTot=           6 NShNF=           6 NShFF=           0 MinMC=      10
           NShCPU=           6 NBCPU=           6 AvBCPU=         1.0
           NShGPU=           0 NBGPU=           0 AvBGPU=         0.0
 CoulSu:  NxtVal=             33 LenVP=       12581460 MinMC=      10.
 Polarizability after L703:
                1             2             3 
      1  0.347836D+01
      2  0.000000D+00  0.347836D+01
      3  0.000000D+00  0.000000D+00  0.660006D+01
 Dipole Derivatives after L703:
                 1             2             3             4             5 
      1   0.207413D-01  0.000000D+00  0.000000D+00 -0.207413D-01  0.000000D+00
      2   0.000000D+00  0.207413D-01  0.000000D+00  0.000000D+00 -0.207413D-01
      3   0.000000D+00  0.000000D+00 -0.540046D+00  0.000000D+00  0.000000D+00
                 6 
      1   0.000000D+00
      2   0.000000D+00
      3   0.540046D+00
 Hessian after L703:
                1             2             3             4             5 
      1  0.516762D-02
      2  0.000000D+00  0.516762D-02
      3  0.000000D+00  0.000000D+00  0.153655D+01
      4 -0.516762D-02  0.000000D+00  0.000000D+00  0.516762D-02
      5  0.000000D+00 -0.516762D-02  0.000000D+00  0.000000D+00  0.516762D-02
      6  0.000000D+00  0.000000D+00 -0.153655D+01  0.000000D+00  0.000000D+00
                6 
      6  0.153655D+01
 Leave Link  703 at Sun Dec 28 17:27:39 2025, MaxMem=   402653184 cpu:               7.2 elap:               0.3
 (Enter /cluster/software/Gaussian/g16_B.01/l716.exe)
 FrcOut:
 IF    =        28 IFX   =        34 IFXYZ =        40
 IFFX  =        46 IFFFX =        67 IFLen =         6
 IFFLen=        21 IFFFLn=         0 IEDerv=        67
 LEDerv=       341 IFroze=       510 ICStrt=       761
 Dipole        =-3.61231748D-15-3.89730613D-15 4.50472269D-02
 DipoleDeriv   = 2.07412976D-02 8.69362418D-16 5.23552815D-16
                 4.88453754D-16 2.07412976D-02 2.48233466D-15
                -3.36016206D-16-7.69352860D-16-5.40045922D-01
                -2.07412976D-02-8.74132908D-16-5.23552815D-16
                -4.69805477D-16-2.07412976D-02-2.48233466D-15
                 3.36016206D-16 7.69352860D-16 5.40045922D-01
 Polarizability= 3.47835618D+00-1.33573708D-16 3.47835618D+00
                 9.70953338D-15 1.26694874D-14 6.60005832D+00
 PolarDeriv    = 2.08200890D-14 8.63099140D-15 2.75930966D-15
                 1.43733923D+00 5.91186468D-16-2.62567812D-15
                 3.45502149D-15 9.03038967D-15 2.07170043D-14
                -9.95323993D-16 1.43733923D+00-3.95318539D-15
                 1.17942030D+00-9.93191204D-16 1.17942030D+00
                 1.43167035D-14 1.13021631D-14 6.04391725D+00
                -1.40087916D-14-7.66216837D-15-2.75930966D-15
                -1.43733923D+00-5.14858635D-16 2.62567812D-15
                -3.45502149D-15-5.62474098D-15-1.87793582D-14
                 9.01648926D-16-1.43733923D+00 3.95318539D-15
                -1.17942030D+00 1.00013010D-15-1.17942030D+00
                -1.09110548D-14-1.03333401D-14-6.04391725D+00
 HyperPolar    = 1.34630331D-14-1.48436249D-14 4.48767770D-15
                -4.45308747D-14 5.62710533D+00-1.28626697D-14
                 5.62710533D+00 1.62373063D-14 3.81560036D-14
                -4.67511194D+00
 Quadrupole    = 7.46740407D-01 7.46740407D-01-1.49348081D+00
                -1.95515347D-15 1.26561594D-14 1.30594307D-14
 -------------------------------------------------------------------
 Center     Atomic                   Forces (Hartrees/Bohr)
 Number     Number              X              Y              Z
 -------------------------------------------------------------------
      1        8          -0.000000000   -0.000000000   -0.011223349
      2        6           0.000000000    0.000000000    0.011223349
 -------------------------------------------------------------------
 Cartesian Forces:  Max     0.011223349 RMS     0.006479804
 Force constants in Cartesian coordinates: 
                1             2             3             4             5 
      1  0.516762D-02
      2  0.000000D+00  0.516762D-02
      3  0.000000D+00  0.000000D+00  0.153655D+01
      4 -0.516762D-02  0.000000D+00  0.000000D+00  0.516762D-02
      5  0.000000D+00 -0.516762D-02  0.000000D+00  0.000000D+00  0.516762D-02
      6  0.000000D+00  0.000000D+00 -0.153655D+01  0.000000D+00  0.000000D+00
                6 
      6  0.153655D+01
 Final forces over variables, Energy=-1.11225409D+02:
 -2.79309109D-09
 Leave Link  716 at Sun Dec 28 17:27:39 2025, MaxMem=   402653184 cpu:               1.0 elap:               0.1
 (Enter /cluster/software/Gaussian/g16_B.01/l106.exe)
 NDeriv=      1 NFrqRd=  0 NDerD0=      0 MskFDP=       0 MskDFD=       0 MskDF0=       0
 Re-enter D2Numr:  normal mode   1 step-up   number 1
 Leave Link  106 at Sun Dec 28 17:27:40 2025, MaxMem=   402653184 cpu:               3.9 elap:               0.2
 (Enter /cluster/software/Gaussian/g16_B.01/l301.exe)
 Standard basis: STO-3G (5D, 7F)
 Ernie: Thresh=  0.10000D-02 Tol=  0.10000D-05 Strict=F.
    10 basis functions,    30 primitive gaussians,    10 cartesian basis functions
     7 alpha electrons        7 beta electrons
       nuclear repulsion energy        22.2487170259 Hartrees.
 IExCor=    0 DFT=F Ex=HF Corr=None ExCW=0 ScaHFX=  1.000000
 ScaDFX=  1.000000  1.000000  1.000000  1.000000 ScalE2=  1.000000  1.000000
 IRadAn=      5 IRanWt=     -1 IRanGd=            0 ICorTp=0 IEmpDi=  4
 NAtoms=    2 NActive=    2 NUniq=    2 SFac= 1.00D+00 NAtFMM=   60 NAOKFM=F Big=F
 Integral buffers will be    131072 words long.
 Raffenetti 1 integral format.
 Two-electron integral symmetry is turned off.
 Leave Link  301 at Sun Dec 28 17:27:40 2025, MaxMem=   402653184 cpu:               1.8 elap:               0.1
 (Enter /cluster/software/Gaussian/g16_B.01/l302.exe)
 NPDir=0 NMtPBC=     1 NCelOv=     1 NCel=       1 NClECP=     1 NCelD=      1
         NCelK=      1 NCelE2=     1 NClLst=     1 CellRange=     0.0.
 One-electron integrals computed using PRISM.
 NBasis=    10 RedAO= T EigKep=  2.12D-01  NBF=    10
 NBsUse=    10 1.00D-06 EigRej= -1.00D+00 NBFU=    10
 Leave Link  302 at Sun Dec 28 17:27:40 2025, MaxMem=   402653184 cpu:               2.9 elap:               0.1
 (Enter /cluster/software/Gaussian/g16_B.01/l303.exe)
 DipDrv:  MaxL=1.
 Leave Link  303 at Sun Dec 28 17:27:40 2025, MaxMem=   402653184 cpu:               0.8 elap:               0.1
 (Enter /cluster/software/Gaussian/g16_B.01/l401.exe)
 Initial guess from the checkpoint file:  "inputFull_3q.chk"
 B after Tr=     0.000000    0.000000   -0.000001
         Rot=    1.000000    0.000000    0.000000    0.000000 Ang=   0.00 deg.
 Guess basis will be translated and rotated to current coordinates.
 JPrj=2 DoOrth=T DoCkMO=T.
 Leave Link  401 at Sun Dec 28 17:27:40 2025, MaxMem=   402653184 cpu:               2.8 elap:               0.1
 (Enter /cluster/software/Gaussian/g16_B.01/l502.exe)
 Keep R1 ints in memory in canonical form, NReq=6407713.
 FoFCou: FMM=F IPFlag=           0 FMFlag=           0 FMFlg1=           0
         NFxFlg=           0 DoJE=F BraDBF=F KetDBF=F FulRan=T
         wScrn=  0.000000 ICntrl=       600 IOpCl=  0 I1Cent=           0 NGrid=           0
         NMat0=    1 NMatS0=     55 NMatT0=    0 NMatD0=    1 NMtDS0=    0 NMtDT0=    0
 Symmetry not used in FoFCou.
 Two-electron integral symmetry not used.
 Closed shell SCF:
 Using DIIS extrapolation, IDIIS=  1040.
 NGot=   402653184 LenX=   402649780 LenY=   402648898
 Requested convergence on RMS density matrix=1.00D-08 within 128 cycles.
 Requested convergence on MAX density matrix=1.00D-06.
 Requested convergence on             energy=1.00D-06.
 No special actions if energy rises.

 Cycle   1  Pass 1  IDiag  1:
 E= -111.225404019675    
 DIIS: error= 7.42D-04 at cycle   1 NSaved=   1.
 NSaved= 1 IEnMin= 1 EnMin= -111.225404019675     IErMin= 1 ErrMin= 7.42D-04
 ErrMax= 7.42D-04  0.00D+00 EMaxC= 1.00D-01 BMatC= 4.11D-06 BMatP= 4.11D-06
 IDIUse=3 WtCom= 9.93D-01 WtEn= 7.42D-03
 Coeff-Com:  0.100D+01
 Coeff-En:   0.100D+01
 Coeff:      0.100D+01
 Gap=     0.753 Goal=   None    Shift=    0.000
 RMSDP=2.70D-04 MaxDP=1.21D-03              OVMax= 0.00D+00

 Cycle   2  Pass 1  IDiag  1:
 E= -111.225407595187     Delta-E=       -0.000003575511 Rises=F Damp=F
 DIIS: error= 1.35D-04 at cycle   2 NSaved=   2.
 NSaved= 2 IEnMin= 2 EnMin= -111.225407595187     IErMin= 2 ErrMin= 1.35D-04
 ErrMax= 1.35D-04  0.00D+00 EMaxC= 1.00D-01 BMatC= 2.81D-07 BMatP= 4.11D-06
 IDIUse=3 WtCom= 9.99D-01 WtEn= 1.35D-03
 Coeff-Com: -0.813D-01 0.108D+01
 Coeff-En:   0.000D+00 0.100D+01
 Coeff:     -0.812D-01 0.108D+01
 Gap=     0.753 Goal=   None    Shift=    0.000
 RMSDP=1.03D-04 MaxDP=3.95D-04 DE=-3.58D-06 OVMax= 0.00D+00

 Cycle   3  Pass 1  IDiag  1:
 E= -111.225408023894     Delta-E=       -0.000000428707 Rises=F Damp=F
 DIIS: error= 1.30D-04 at cycle   3 NSaved=   3.
 NSaved= 3 IEnMin= 3 EnMin= -111.225408023894     IErMin= 3 ErrMin= 1.30D-04
 ErrMax= 1.30D-04  0.00D+00 EMaxC= 1.00D-01 BMatC= 1.75D-07 BMatP= 2.81D-07
 IDIUse=3 WtCom= 9.99D-01 WtEn= 1.30D-03
 Coeff-Com: -0.124D+00 0.465D+00 0.659D+00
 Coeff-En:   0.000D+00 0.000D+00 0.100D+01
 Coeff:     -0.124D+00 0.464D+00 0.659D+00
 Gap=     0.753 Goal=   None    Shift=    0.000
 RMSDP=4.36D-05 MaxDP=2.18D-04 DE=-4.29D-07 OVMax= 0.00D+00

 Cycle   4  Pass 1  IDiag  1:
 E= -111.225408188806     Delta-E=       -0.000000164912 Rises=F Damp=F
 DIIS: error= 2.64D-05 at cycle   4 NSaved=   4.
 NSaved= 4 IEnMin= 4 EnMin= -111.225408188806     IErMin= 4 ErrMin= 2.64D-05
 ErrMax= 2.64D-05  0.00D+00 EMaxC= 1.00D-01 BMatC= 5.59D-09 BMatP= 1.75D-07
 IDIUse=1 WtCom= 1.00D+00 WtEn= 0.00D+00
 Coeff-Com:  0.206D-01-0.167D+00-0.221D+00 0.137D+01
 Coeff:      0.206D-01-0.167D+00-0.221D+00 0.137D+01
 Gap=     0.753 Goal=   None    Shift=    0.000
 RMSDP=1.98D-05 MaxDP=9.55D-05 DE=-1.65D-07 OVMax= 0.00D+00

 Cycle   5  Pass 1  IDiag  1:
 E= -111.225408201733     Delta-E=       -0.000000012927 Rises=F Damp=F
 DIIS: error= 3.91D-06 at cycle   5 NSaved=   5.
 NSaved= 5 IEnMin= 5 EnMin= -111.225408201733     IErMin= 5 ErrMin= 3.91D-06
 ErrMax= 3.91D-06  0.00D+00 EMaxC= 1.00D-01 BMatC= 1.54D-10 BMatP= 5.59D-09
 IDIUse=1 WtCom= 1.00D+00 WtEn= 0.00D+00
 Coeff-Com: -0.410D-02 0.503D-01 0.440D-01-0.483D+00 0.139D+01
 Coeff:     -0.410D-02 0.503D-01 0.440D-01-0.483D+00 0.139D+01
 Gap=     0.753 Goal=   None    Shift=    0.000
 RMSDP=3.80D-06 MaxDP=1.74D-05 DE=-1.29D-08 OVMax= 0.00D+00

 Cycle   6  Pass 1  IDiag  1:
 E= -111.225408202031     Delta-E=       -0.000000000298 Rises=F Damp=F
 DIIS: error= 2.18D-08 at cycle   6 NSaved=   6.
 NSaved= 6 IEnMin= 6 EnMin= -111.225408202031     IErMin= 6 ErrMin= 2.18D-08
 ErrMax= 2.18D-08  0.00D+00 EMaxC= 1.00D-01 BMatC= 3.29D-15 BMatP= 1.54D-10
 IDIUse=1 WtCom= 1.00D+00 WtEn= 0.00D+00
 Coeff-Com:  0.410D-03-0.501D-02-0.447D-02 0.480D-01-0.137D+00 0.110D+01
 Coeff:      0.410D-03-0.501D-02-0.447D-02 0.480D-01-0.137D+00 0.110D+01
 Gap=     0.753 Goal=   None    Shift=    0.000
 RMSDP=7.67D-09 MaxDP=3.88D-08 DE=-2.98D-10 OVMax= 0.00D+00

 SCF Done:  E(RHF) =  -111.225408202     A.U. after    6 cycles
            NFock=  6  Conv=0.77D-08     -V/T= 2.0074
 KE= 1.104052482335D+02 PE=-3.069815422778D+02 EE= 6.310216881633D+01
 Leave Link  502 at Sun Dec 28 17:27:41 2025, MaxMem=   402653184 cpu:               4.3 elap:               0.2
 (Enter /cluster/software/Gaussian/g16_B.01/l801.exe)
 Range of M.O.s used for correlation:     1    10
 NBasis=    10 NAE=     7 NBE=     7 NFC=     0 NFV=     0
 NROrb=     10 NOA=     7 NOB=     7 NVA=     3 NVB=     3
 Leave Link  801 at Sun Dec 28 17:27:41 2025, MaxMem=   402653184 cpu:               0.7 elap:               0.1
 (Enter /cluster/software/Gaussian/g16_B.01/l1002.exe)
 Minotr:  Closed shell wavefunction.
          Direct CPHF calculation.
          Differentiating once with respect to electric field.
                with respect to dipole field.
          Electric field/nuclear overlap derivatives assumed to be zero.
          Requested convergence is 1.0D-08 RMS, and 1.0D-07 maximum.
          Secondary convergence is 1.0D-12 RMS, and 1.0D-12 maximum.
          NewPWx=F KeepS1=T KeepF1=T KeepIn=T MapXYZ=F SortEE=F KeepMc=T.
 Keep R1 ints in memory in canonical form, NReq=6408069.
 FoFCou: FMM=F IPFlag=           0 FMFlag=           0 FMFlg1=           0
         NFxFlg=           0 DoJE=F BraDBF=F KetDBF=F FulRan=T
         wScrn=  0.000000 ICntrl=       600 IOpCl=  0 I1Cent=           0 NGrid=           0
         NMat0=    1 NMatS0=     55 NMatT0=    0 NMatD0=    1 NMtDS0=    0 NMtDT0=    0
 Symmetry not used in FoFCou.
 Two-electron integral symmetry not used.
          MDV=     402653184 using IRadAn=       4.
          Solving linear equations simultaneously, MaxMat=       0.
          There are     3 degrees of freedom in the 1st order CPHF.  IDoFFX=0 NUNeed=     3.
      3 vectors produced by pass  0 Test12= 7.00D-16 3.33D-08 XBig12= 3.03D+00 1.16D+00.
 AX will form     3 AO Fock derivatives at one time.
      3 vectors produced by pass  1 Test12= 7.00D-16 3.33D-08 XBig12= 4.21D-02 1.75D-01.
      3 vectors produced by pass  2 Test12= 7.00D-16 3.33D-08 XBig12= 6.33D-04 2.14D-02.
      3 vectors produced by pass  3 Test12= 7.00D-16 3.33D-08 XBig12= 4.14D-07 4.81D-04.
      3 vectors produced by pass  4 Test12= 7.00D-16 3.33D-08 XBig12= 5.66D-10 1.85D-05.
      3 vectors produced by pass  5 Test12= 7.00D-16 3.33D-08 XBig12= 7.12D-13 5.40D-07.
 InvSVY:  IOpt=1 It=  1 EMax= 2.22D-16
 Solved reduced A of dimension    18 with     3 vectors.
 End of Minotr F.D. properties file   721 does not exist.
 End of Minotr F.D. properties file   722 does not exist.
 End of Minotr F.D. properties file   788 does not exist.
 Leave Link 1002 at Sun Dec 28 17:27:41 2025, MaxMem=   402653184 cpu:               3.6 elap:               0.2
 (Enter /cluster/software/Gaussian/g16_B.01/l1101.exe)
 Using compressed storage, NAtomX=     2.
 Will process      3 centers per pass.
 Leave Link 1101 at Sun Dec 28 17:27:41 2025, MaxMem=   402653184 cpu:               2.3 elap:               0.1
 (Enter /cluster/software/Gaussian/g16_B.01/l1102.exe)
 Symmetrizing basis deriv contribution to polar:
 IMax=3 JMax=2 DiffMx= 0.00D+00
 Leave Link 1102 at Sun Dec 28 17:27:41 2025, MaxMem=   402653184 cpu:               0.7 elap:               0.1
 (Enter /cluster/software/Gaussian/g16_B.01/l1110.exe)
 Forming Gx(P) for the SCF density, NAtomX=     2.
 Integral derivatives from FoFJK, PRISM(SPDF).
 Do as many integral derivatives as possible in FoFJK.
 G2DrvN: MDV=     402652900.
 G2DrvN: will do     3 centers at a time, making    1 passes.
 PxScal for G2LodP:  IOpCl= 0 ISclPx=1 IMOff=     1 NMtTot=     4 NTT=      55 ScalPx= 1.09D+00
 Calling FoFCou, ICntrl=  3107 FMM=F I1Cent=   0 AccDes= 0.00D+00.
 FoFJK:  IHMeth= 1 ICntrl=    3107 DoSepK=F KAlg= 0 I1Cent=           0 FoldK=F
 IRaf=         0 NMat=       1 IRICut=       1 DoRegI=T DoRafI=F ISym2E= 0 IDoP0=0 IntGTp=1.
 FoFCou: FMM=F IPFlag=           0 FMFlag=      100000 FMFlg1=           0
         NFxFlg=           0 DoJE=F BraDBF=F KetDBF=F FulRan=T
         wScrn=  0.000000 ICntrl=      3107 IOpCl=  0 I1Cent=           0 NGrid=           0
         NMat0=    1 NMatS0=      1 NMatT0=    0 NMatD0=    4 NMtDS0=    3 NMtDT0=    0
 Symmetry not used in FoFCou.
 End of G2Drv F.D. properties file   721 does not exist.
 End of G2Drv F.D. properties file   722 does not exist.
 End of G2Drv F.D. properties file   788 does not exist.
 Leave Link 1110 at Sun Dec 28 17:27:42 2025, MaxMem=   402653184 cpu:               3.5 elap:               0.1
 (Enter /cluster/software/Gaussian/g16_B.01/l1002.exe)
 Minotr:  Closed shell wavefunction.
          IDoAtm=11
          Direct CPHF calculation.
          Differentiating once with respect to electric field.
                with respect to dipole field.
          Differentiating once with respect to nuclear coordinates.
          Requested convergence is 1.0D-08 RMS, and 1.0D-07 maximum.
          Secondary convergence is 1.0D-12 RMS, and 1.0D-12 maximum.
          NewPWx=T KeepS1=F KeepF1=F KeepIn=T MapXYZ=F SortEE=F KeepMc=T.
 Keep R1 ints in memory in canonical form, NReq=6408115.
 FoFCou: FMM=F IPFlag=           0 FMFlag=           0 FMFlg1=           0
         NFxFlg=           0 DoJE=F BraDBF=F KetDBF=F FulRan=T
         wScrn=  0.000000 ICntrl=       600 IOpCl=  0 I1Cent=           0 NGrid=           0
         NMat0=    1 NMatS0=     55 NMatT0=    0 NMatD0=    1 NMtDS0=    0 NMtDT0=    0
 Symmetry not used in FoFCou.
 Two-electron integral symmetry not used.
          MDV=     402653184 using IRadAn=       4.
          Solving linear equations simultaneously, MaxMat=       0.
          There are     9 degrees of freedom in the 1st order CPHF.  IDoFFX=5 NUNeed=     9.
 Will reuse    3 saved solutions.
      3 vectors produced by pass  0 Test12= 2.33D-16 1.11D-08 XBig12= 5.43D-02 1.30D-01.
 AX will form     3 AO Fock derivatives at one time.
      3 vectors produced by pass  1 Test12= 2.33D-16 1.11D-08 XBig12= 5.04D-03 4.96D-02.
      3 vectors produced by pass  2 Test12= 2.33D-16 1.11D-08 XBig12= 1.93D-04 1.35D-02.
      3 vectors produced by pass  3 Test12= 2.33D-16 1.11D-08 XBig12= 3.17D-07 5.22D-04.
      3 vectors produced by pass  4 Test12= 2.33D-16 1.11D-08 XBig12= 1.16D-10 9.34D-06.
      3 vectors produced by pass  5 Test12= 2.33D-16 1.11D-08 XBig12= 2.26D-13 4.48D-07.
 InvSVY:  IOpt=1 It=  1 EMax= 1.16D-16
 Solved reduced A of dimension    18 with     3 vectors.
 FullF1:  Do perturbations      1 to       3.
 Isotropic polarizability for W=    0.000000        4.48 Bohr**3.
 FullF1:  Do perturbations      1 to       6.
 End of Minotr F.D. properties file   721 does not exist.
 End of Minotr F.D. properties file   722 does not exist.
 End of Minotr F.D. properties file   788 does not exist.
 Leave Link 1002 at Sun Dec 28 17:27:42 2025, MaxMem=   402653184 cpu:               4.6 elap:               0.2
 (Enter /cluster/software/Gaussian/g16_B.01/l601.exe)
 Copying SCF densities to generalized density rwf, IOpCl= 0 IROHF=0.

 **********************************************************************

            Population analysis using the SCF Density.

 **********************************************************************

 Alpha  occ. eigenvalues --  -20.41748 -11.09243  -1.44849  -0.69740  -0.54237
 Alpha  occ. eigenvalues --   -0.54237  -0.44543
 Alpha virt. eigenvalues --    0.30773   0.30773   1.01588
          Condensed to atoms (all electrons):
               1          2
     1  O    7.674723   0.524560
     2  C    0.524560   5.276158
 Mulliken charges:
               1
     1  O   -0.199283
     2  C    0.199283
 Sum of Mulliken charges =   0.00000
 Mulliken charges with hydrogens summed into heavy atoms:
               1
     1  O   -0.199283
     2  C    0.199283
 APT charges:
               1
     1  O   -0.161371
     2  C    0.161371
 Sum of APT charges =   0.00000
 APT charges with hydrogens summed into heavy atoms:
               1
     1  O   -0.161371
     2  C    0.161371
 Electronic spatial extent (au):  <R**2>=             37.6141
 Charge=              0.0000 electrons
 Dipole moment (field-independent basis, Debye):
    X=             -0.0000    Y=              0.0000    Z=              0.1342  Tot=              0.1342
 Quadrupole moment (field-independent basis, Debye-Ang):
   XX=             -8.7030   YY=             -8.7030   ZZ=            -11.7218
   XY=              0.0000   XZ=              0.0000   YZ=             -0.0000
 Traceless Quadrupole moment (field-independent basis, Debye-Ang):
   XX=              1.0063   YY=              1.0063   ZZ=             -2.0125
   XY=              0.0000   XZ=              0.0000   YZ=             -0.0000
 Octapole moment (field-independent basis, Debye-Ang**2):
  XXX=             -0.0000  YYY=              0.0000  ZZZ=              5.7875  XYY=             -0.0000
  XXY=              0.0000  XXZ=              0.9949  XZZ=             -0.0000  YZZ=              0.0000
  YYZ=              0.9949  XYZ=              0.0000
 Hexadecapole moment (field-independent basis, Debye-Ang**3):
 XXXX=             -5.3768 YYYY=             -5.3768 ZZZZ=            -30.1213 XXXY=             -0.0000
 XXXZ=              0.0000 YYYX=             -0.0000 YYYZ=             -0.0000 ZZZX=              0.0000
 ZZZY=             -0.0000 XXYY=             -1.7923 XXZZ=             -5.2101 YYZZ=             -5.2101
 XXYZ=             -0.0000 YYXZ=              0.0000 ZZXY=             -0.0000
 N-N= 2.224871702595D+01 E-N=-3.069815423399D+02  KE= 1.104052482335D+02
  Exact polarizability:   3.461   0.000   3.461   0.000  -0.000   6.513
 Approx polarizability:   2.379  -0.000   2.379   0.000  -0.000  11.171
 No NMR shielding tensors so no spin-rotation constants.
 Leave Link  601 at Sun Dec 28 17:27:42 2025, MaxMem=   402653184 cpu:               2.5 elap:               0.1
 (Enter /cluster/software/Gaussian/g16_B.01/l701.exe)
 SCFChk:  SCF convergence  7.67D-09 required  1.00D-08
 ... and contract with generalized density number  0.
 Compute integral second derivatives.
 Entering OneElI...
 Calculate overlap and kinetic energy integrals
    NBasis =  10  MinDer = 2  MaxDer = 2
 Requested accuracy = 0.1000D-12
 PrmmSu-InSpLW:  IPartL=    0 NPrtUS=   32 NPrtUL=    1 DoSpLW=F IThBeg=    0 IThEnd=   31 NThAct=   32.
 PrSmSu:  IncTry=   512 NBBP=             10 NTPThr=   100 NPartT=   32 Incr=           1 LDynOK=F GPUOK=F.
 PrsmSu:  NPrtUS=  32 ThrOK=T IAlg=2 LenDen=           0 ISkipM=0 DoSpLW=F IThBeg=    0 IThEnd=   31.
 Prism:   IPart=     0 DynPar=F LinDyn=F Incr=           1.
 PRISM was handed    12581430 working-precision words and    10 shell-pairs
 PRISM was handed    12581430 working-precision words and    10 shell-pairs
 PRISM was handed    12581430 working-precision words and    10 shell-pairs
 PRISM was handed    12581430 working-precision words and    10 shell-pairs
 PRISM was handed    12581430 working-precision words and    10 shell-pairs
 PRISM was handed    12581430 working-precision words and    10 shell-pairs
 PRISM was handed    12581430 working-precision words and    10 shell-pairs
 PRISM was handed    12581430 working-precision words and    10 shell-pairs
 PRISM was handed    12581430 working-precision words and    10 shell-pairs
 PRISM was handed    12581430 working-precision words and    10 shell-pairs
 PRISM was handed    12581430 working-precision words and    10 shell-pairs
 PRISM was handed    12581430 working-precision words and    10 shell-pairs
 PRISM was handed    12581430 working-precision words and    10 shell-pairs
 PRISM was handed    12581430 working-precision words and    10 shell-pairs
 PRISM was handed    12581430 working-precision words and    10 shell-pairs
 PRISM was handed    12581430 working-precision words and    10 shell-pairs
 PRISM was handed    12581430 working-precision words and    10 shell-pairs
 PRISM was handed    12581430 working-precision words and    10 shell-pairs
 PRISM was handed    12581430 working-precision words and    10 shell-pairs
 PRISM was handed    12581430 working-precision words and    10 shell-pairs
 PRISM was handed    12581430 working-precision words and    10 shell-pairs
 PRISM was handed    12581430 working-precision words and    10 shell-pairs
 PRISM was handed    12581430 working-precision words and    10 shell-pairs
 PRISM was handed    12581430 working-precision words and    10 shell-pairs
 PRISM was handed    12581430 working-precision words and    10 shell-pairs
 PRISM was handed    12581430 working-precision words and    10 shell-pairs
 PRISM was handed    12581430 working-precision words and    10 shell-pairs
 PRISM was handed    12581430 working-precision words and    10 shell-pairs
 PRISM was handed    12581430 working-precision words and    10 shell-pairs
 PRISM was handed    12581430 working-precision words and    10 shell-pairs
 PRISM was handed    12581430 working-precision words and    10 shell-pairs
 PRISM was handed    12581430 working-precision words and    10 shell-pairs
 IPart= 24 NShTot=           0 NBatch=           0 AvBLen=         0.0
 IPart= 12 NShTot=           0 NBatch=           0 AvBLen=         0.0
 IPart=  6 NShTot=           0 NBatch=           0 AvBLen=         0.0
 IPart= 11 NShTot=           0 NBatch=           0 AvBLen=         0.0
 IPart= 10 NShTot=           0 NBatch=           0 AvBLen=         0.0
 IPart= 13 NShTot=           0 NBatch=           0 AvBLen=         0.0
 IPart=  7 NShTot=           0 NBatch=           0 AvBLen=         0.0
 IPart= 26 NShTot=           0 NBatch=           0 AvBLen=         0.0
 IPart=  5 NShTot=           0 NBatch=           0 AvBLen=         0.0
 IPart= 28 NShTot=           0 NBatch=           0 AvBLen=         0.0
 IPart= 30 NShTot=           0 NBatch=           0 AvBLen=         0.0
 IPart=  9 NShTot=           0 NBatch=           0 AvBLen=         0.0
 IPart= 22 NShTot=           0 NBatch=           0 AvBLen=         0.0
 IPart= 16 NShTot=           0 NBatch=           0 AvBLen=         0.0
 IPart= 14 NShTot=           0 NBatch=           0 AvBLen=         0.0
 IPart= 18 NShTot=           0 NBatch=           0 AvBLen=         0.0
 IPart= 20 NShTot=           0 NBatch=           0 AvBLen=         0.0
 IPart= 17 NShTot=           0 NBatch=           0 AvBLen=         0.0
 IPart=  4 NShTot=           0 NBatch=           0 AvBLen=         0.0
 IPart= 21 NShTot=           0 NBatch=           0 AvBLen=         0.0
 IPart=  3 NShTot=           1 NBatch=           1 AvBLen=         1.0
 IPart=  2 NShTot=           2 NBatch=           2 AvBLen=         1.0
 IPart=  1 NShTot=           3 NBatch=           3 AvBLen=         1.0
 IPart=  0 NShTot=           4 NBatch=           4 AvBLen=         1.0
 IPart= 15 NShTot=           0 NBatch=           0 AvBLen=         0.0
 IPart= 31 NShTot=           0 NBatch=           0 AvBLen=         0.0
 IPart=  8 NShTot=           0 NBatch=           0 AvBLen=         0.0
 IPart= 25 NShTot=           0 NBatch=           0 AvBLen=         0.0
 IPart= 29 NShTot=           0 NBatch=           0 AvBLen=         0.0
 IPart= 19 NShTot=           0 NBatch=           0 AvBLen=         0.0
 IPart= 27 NShTot=           0 NBatch=           0 AvBLen=         0.0
 IPart= 23 NShTot=           0 NBatch=           0 AvBLen=         0.0
 PrSmSu:  NxtVal=             33.
 Entering OneElI...
 Calculate potential energy integrals
    NBasis =  10  MinDer = 2  MaxDer = 2
 Requested accuracy = 0.1000D-12
 PrmmSu-InSpLW:  IPartL=    0 NPrtUS=   32 NPrtUL=    1 DoSpLW=F IThBeg=    0 IThEnd=   31 NThAct=   32.
 PrSmSu:  IncTry=   512 NBBP=             20 NTPThr=   100 NPartT=   32 Incr=           1 LDynOK=F GPUOK=F.
 PrsmSu:  NPrtUS=  32 ThrOK=T IAlg=2 LenDen=           0 ISkipM=0 DoSpLW=F IThBeg=    0 IThEnd=   31.
 Prism:   IPart=     0 DynPar=F LinDyn=F Incr=           1.
 PRISM was handed    12581437 working-precision words and    10 shell-pairs
 PRISM was handed    12581437 working-precision words and    10 shell-pairs
 PRISM was handed    12581437 working-precision words and    10 shell-pairs
 PRISM was handed    12581437 working-precision words and    10 shell-pairs
 PRISM was handed    12581437 working-precision words and    10 shell-pairs
 PRISM was handed    12581437 working-precision words and    10 shell-pairs
 PRISM was handed    12581437 working-precision words and    10 shell-pairs
 PRISM was handed    12581437 working-precision words and    10 shell-pairs
 PRISM was handed    12581437 working-precision words and    10 shell-pairs
 PRISM was handed    12581437 working-precision words and    10 shell-pairs
 PRISM was handed    12581437 working-precision words and    10 shell-pairs
 PRISM was handed    12581437 working-precision words and    10 shell-pairs
 PRISM was handed    12581437 working-precision words and    10 shell-pairs
 PRISM was handed    12581437 working-precision words and    10 shell-pairs
 PRISM was handed    12581437 working-precision words and    10 shell-pairs
 PRISM was handed    12581437 working-precision words and    10 shell-pairs
 PRISM was handed    12581437 working-precision words and    10 shell-pairs
 PRISM was handed    12581437 working-precision words and    10 shell-pairs
 PRISM was handed    12581437 working-precision words and    10 shell-pairs
 PRISM was handed    12581437 working-precision words and    10 shell-pairs
 PRISM was handed    12581437 working-precision words and    10 shell-pairs
 PRISM was handed    12581437 working-precision words and    10 shell-pairs
 PRISM was handed    12581437 working-precision words and    10 shell-pairs
 PRISM was handed    12581437 working-precision words and    10 shell-pairs
 PRISM was handed    12581437 working-precision words and    10 shell-pairs
 PRISM was handed    12581437 working-precision words and    10 shell-pairs
 PRISM was handed    12581437 working-precision words and    10 shell-pairs
 PRISM was handed    12581437 working-precision words and    10 shell-pairs
 PRISM was handed    12581437 working-precision words and    10 shell-pairs
 PRISM was handed    12581437 working-precision words and    10 shell-pairs
 PRISM was handed    12581437 working-precision words and    10 shell-pairs
 PRISM was handed    12581437 working-precision words and    10 shell-pairs
 IPart=  4 NShTot=           0 NBatch=           0 AvBLen=         0.0
 IPart=  5 NShTot=           0 NBatch=           0 AvBLen=         0.0
 IPart= 13 NShTot=           0 NBatch=           0 AvBLen=         0.0
 IPart= 11 NShTot=           0 NBatch=           0 AvBLen=         0.0
 IPart=  7 NShTot=           0 NBatch=           0 AvBLen=         0.0
 IPart=  3 NShTot=           2 NBatch=           1 AvBLen=         2.0
 IPart= 20 NShTot=           0 NBatch=           0 AvBLen=         0.0
 IPart=  9 NShTot=           0 NBatch=           0 AvBLen=         0.0
 IPart= 10 NShTot=           0 NBatch=           0 AvBLen=         0.0
 IPart= 12 NShTot=           0 NBatch=           0 AvBLen=         0.0
 IPart= 16 NShTot=           0 NBatch=           0 AvBLen=         0.0
 IPart=  6 NShTot=           0 NBatch=           0 AvBLen=         0.0
 IPart= 22 NShTot=           0 NBatch=           0 AvBLen=         0.0
 IPart= 26 NShTot=           0 NBatch=           0 AvBLen=         0.0
 IPart= 30 NShTot=           0 NBatch=           0 AvBLen=         0.0
 IPart= 24 NShTot=           0 NBatch=           0 AvBLen=         0.0
 IPart= 18 NShTot=           0 NBatch=           0 AvBLen=         0.0
 IPart= 14 NShTot=           0 NBatch=           0 AvBLen=         0.0
 IPart=  2 NShTot=           4 NBatch=           2 AvBLen=         2.0
 IPart=  1 NShTot=           6 NBatch=           3 AvBLen=         2.0
 IPart=  0 NShTot=           8 NBatch=           4 AvBLen=         2.0
 IPart= 28 NShTot=           0 NBatch=           0 AvBLen=         0.0
 IPart= 29 NShTot=           0 NBatch=           0 AvBLen=         0.0
 IPart=  8 NShTot=           0 NBatch=           0 AvBLen=         0.0
 IPart= 25 NShTot=           0 NBatch=           0 AvBLen=         0.0
 IPart= 19 NShTot=           0 NBatch=           0 AvBLen=         0.0
 IPart= 31 NShTot=           0 NBatch=           0 AvBLen=         0.0
 IPart= 15 NShTot=           0 NBatch=           0 AvBLen=         0.0
 IPart= 23 NShTot=           0 NBatch=           0 AvBLen=         0.0
 IPart= 27 NShTot=           0 NBatch=           0 AvBLen=         0.0
 IPart= 21 NShTot=           0 NBatch=           0 AvBLen=         0.0
 IPart= 17 NShTot=           0 NBatch=           0 AvBLen=         0.0
 PrSmSu:  NxtVal=             33.
 Polarizability after L701:
                1             2             3 
      1  0.346127D+01
      2  0.000000D+00  0.346127D+01
      3  0.000000D+00  0.000000D+00  0.651314D+01
 Dipole Derivatives after L701:
                 1             2             3             4             5 
      1   0.244699D-01  0.000000D+00  0.000000D+00 -0.244699D-01  0.000000D+00
      2   0.000000D+00  0.244699D-01  0.000000D+00  0.000000D+00 -0.244699D-01
      3   0.000000D+00  0.000000D+00 -0.533052D+00  0.000000D+00  0.000000D+00
                 6 
      1   0.000000D+00
      2   0.000000D+00
      3   0.533052D+00
 Hessian after L701:
                1             2             3             4             5 
      1  0.109310D+02
      2  0.000000D+00  0.109310D+02
      3  0.000000D+00  0.000000D+00 -0.228794D+01
      4 -0.109310D+02  0.000000D+00  0.000000D+00  0.109310D+02
      5  0.000000D+00 -0.109310D+02  0.000000D+00  0.000000D+00  0.109310D+02
      6  0.000000D+00  0.000000D+00  0.228794D+01  0.000000D+00  0.000000D+00
                6 
      6 -0.228794D+01
 Leave Link  701 at Sun Dec 28 17:27:42 2025, MaxMem=   402653184 cpu:               3.0 elap:               0.1
 (Enter /cluster/software/Gaussian/g16_B.01/l702.exe)
 L702 exits ... SP integral derivatives will be done elsewhere.
 Leave Link  702 at Sun Dec 28 17:27:42 2025, MaxMem=   402653184 cpu:               0.6 elap:               0.1
 (Enter /cluster/software/Gaussian/g16_B.01/l703.exe)
 Integral derivatives from FoFJK, PRISM(SPDF).
 Compute integral second derivatives, UseDBF=F ICtDFT=           0.
 ICntrl=    100127.
 Calling FoFJK, ICntrl=    100127 FMM=F ISym2X=0 I1Cent= 0 IOpClX= 0 NMat=1 NMatS=1 NMatT=0.
 FoFJK:  IHMeth= 1 ICntrl=  100127 DoSepK=F KAlg= 0 I1Cent=           0 FoldK=F
 IRaf=         0 NMat=       1 IRICut=       1 DoRegI=T DoRafI=F ISym2E= 0 IDoP0=0 IntGTp=1.
 FoFCou: FMM=F IPFlag=           0 FMFlag=      100000 FMFlg1=         800
         NFxFlg=           0 DoJE=F BraDBF=F KetDBF=F FulRan=T
         wScrn=  0.000000 ICntrl=    100127 IOpCl=  0 I1Cent=           0 NGrid=           0
         NMat0=    1 NMatS0=      1 NMatT0=    0 NMatD0=    1 NMtDS0=    0 NMtDT0=    0
 Symmetry not used in FoFCou.
 FoFCou:  KetSym=F NOpSet=  1 NOpAb=1 NOp=  1.
 FoFCou:  CnvScl= 1.00D+00 Thresh= 1.00D-12 IAcrcy=      10.
 PrismS was handed   402650459 working-precision words and    10 shell-pairs
 FoFCou: LinMIO=F DoNuc=F BraDBF=F KetDBF=F HaveP=T PDBF=F HaveZ=T HaveW=F
         NIJTC =       3 NIJTAt=       0 NIJTCD=       0 NIJTT =       3
         IJTBeg=       1 IJTEnd=       3 KLTBeg=       1 KLTEnd=       3
         IPTBeg=       1 IPTEnd=       3 IPTBCv=       1 IPTECv=       3
         IZTBeg=       1 IZTEnd=       3 IZTBCv=       1 IZTECv=       3
         IWTBeg=       4 IWTEnd=       3 IWTBCv=       4 IWTECv=       3
         INTBeg=       1 INTEnd=       0 IFTBCv=       1 IFTECv=       3
 NCel replicated for PrismC:     1
 CoulSu-InSpLW:  IPartL=    0 NPrtUS=   32 NPrtUL=    1 DoSpLW=F IThBeg=    0 IThEnd=   31 NThAct=   32.
 CoulSu:  IncTry=  1024 NBBP=             55 NTPThr=   100 NPartT=   32 Incr=           1 LDynOK=F GPUOK=F.
 CoulSu:  NPrtUS=  32 ThrOK=T IAlg=2 LenDen=           0 LWGrdD=           0 DoCopy=F ISkipM=0
          DoSpLW=F IThBeg=    0 IThEnd=   31.
 Enter PrismC:  IPart=  0 JobTyp=22 DoJE=F Cont=F.
 PrismC:  IPart=     0 DynPar=F LinDyn=F Incr=           1 UseFst=F UseS4=T ISplat=2.
 PrismC was handed    12581459 working-precision words and    10 shell-pairs
 Enter PrismC:  IPart= 18 JobTyp=22 DoJE=F Cont=F.
 Enter PrismC:  IPart= 20 JobTyp=22 DoJE=F Cont=F.
 PrismC:  IPart=    18 DynPar=F LinDyn=F Incr=           1 UseFst=F UseS4=T ISplat=2.
 PrismC was handed    12581459 working-precision words and    10 shell-pairs
 PrismC:  IPart=    20 DynPar=F LinDyn=F Incr=           1 UseFst=F UseS4=T ISplat=2.
 Enter PrismC:  IPart= 26 JobTyp=22 DoJE=F Cont=F.
 PrismC was handed    12581459 working-precision words and    10 shell-pairs
 PrismC:  IPart=    26 DynPar=F LinDyn=F Incr=           1 UseFst=F UseS4=T ISplat=2.
 PrismC was handed    12581459 working-precision words and    10 shell-pairs
 Enter PrismC:  IPart= 29 JobTyp=22 DoJE=F Cont=F.
 Enter PrismC:  IPart= 15 JobTyp=22 DoJE=F Cont=F.
 PrismC:  IPart=    29 DynPar=F LinDyn=F Incr=           1 UseFst=F UseS4=T ISplat=2.
 PrismC was handed    12581459 working-precision words and    10 shell-pairs
 PrismC:  IPart=    15 DynPar=F LinDyn=F Incr=           1 UseFst=F UseS4=T ISplat=2.
 PrismC was handed    12581459 working-precision words and    10 shell-pairs
 Enter PrismC:  IPart=  9 JobTyp=22 DoJE=F Cont=F.
 PrismC:  IPart=     9 DynPar=F LinDyn=F Incr=           1 UseFst=F UseS4=T ISplat=2.
 PrismC was handed    12581459 working-precision words and    10 shell-pairs
 Enter PrismC:  IPart=  8 JobTyp=22 DoJE=F Cont=F.
 Enter PrismC:  IPart= 31 JobTyp=22 DoJE=F Cont=F.
 PrismC:  IPart=     8 DynPar=F LinDyn=F Incr=           1 UseFst=F UseS4=T ISplat=2.
 PrismC was handed    12581459 working-precision words and    10 shell-pairs
 PrismC:  IPart=    31 DynPar=F LinDyn=F Incr=           1 UseFst=F UseS4=T ISplat=2.
 PrismC was handed    12581459 working-precision words and    10 shell-pairs
 Enter PrismC:  IPart= 25 JobTyp=22 DoJE=F Cont=F.
 PrismC:  IPart=    25 DynPar=F LinDyn=F Incr=           1 UseFst=F UseS4=T ISplat=2.
 PrismC was handed    12581459 working-precision words and    10 shell-pairs
 Enter PrismC:  IPart= 21 JobTyp=22 DoJE=F Cont=F.
 Enter PrismC:  IPart= 27 JobTyp=22 DoJE=F Cont=F.
 PrismC:  IPart=    21 DynPar=F LinDyn=F Incr=           1 UseFst=F UseS4=T ISplat=2.
 PrismC was handed    12581459 working-precision words and    10 shell-pairs
 Enter PrismC:  IPart=  5 JobTyp=22 DoJE=F Cont=F.
 Enter PrismC:  IPart= 13 JobTyp=22 DoJE=F Cont=F.
 Enter PrismC:  IPart= 11 JobTyp=22 DoJE=F Cont=F.
 Enter PrismC:  IPart= 17 JobTyp=22 DoJE=F Cont=F.
 PrismC:  IPart=     5 DynPar=F LinDyn=F Incr=           1 UseFst=F UseS4=T ISplat=2.
 PrismC:  IPart=    11 DynPar=F LinDyn=F Incr=           1 UseFst=F UseS4=T ISplat=2.
 PrismC was handed    12581459 working-precision words and    10 shell-pairs
 PrismC was handed    12581459 working-precision words and    10 shell-pairs
 PrismC:  IPart=    17 DynPar=F LinDyn=F Incr=           1 UseFst=F UseS4=T ISplat=2.
 PrismC:  IPart=    13 DynPar=F LinDyn=F Incr=           1 UseFst=F UseS4=T ISplat=2.
 PrismC was handed    12581459 working-precision words and    10 shell-pairs
 PrismC was handed    12581459 working-precision words and    10 shell-pairs
 PrismC:  IPart=    27 DynPar=F LinDyn=F Incr=           1 UseFst=F UseS4=T ISplat=2.
 PrismC was handed    12581459 working-precision words and    10 shell-pairs
 Enter PrismC:  IPart= 19 JobTyp=22 DoJE=F Cont=F.
 PrismC:  IPart=    19 DynPar=F LinDyn=F Incr=           1 UseFst=F UseS4=T ISplat=2.
 PrismC was handed    12581459 working-precision words and    10 shell-pairs
 Enter PrismC:  IPart= 28 JobTyp=22 DoJE=F Cont=F.
 Enter PrismC:  IPart=  3 JobTyp=22 DoJE=F Cont=F.
 PrismC:  IPart=    28 DynPar=F LinDyn=F Incr=           1 UseFst=F UseS4=T ISplat=2.
 PrismC was handed    12581459 working-precision words and    10 shell-pairs
 PrismC:  IPart=     3 DynPar=F LinDyn=F Incr=           1 UseFst=F UseS4=T ISplat=2.
 PrismC was handed    12581459 working-precision words and    10 shell-pairs
 Enter PrismC:  IPart=  7 JobTyp=22 DoJE=F Cont=F.
 Enter PrismC:  IPart=  6 JobTyp=22 DoJE=F Cont=F.
 Enter PrismC:  IPart= 30 JobTyp=22 DoJE=F Cont=F.
 PrismC:  IPart=     7 DynPar=F LinDyn=F Incr=           1 UseFst=F UseS4=T ISplat=2.
 PrismC was handed    12581459 working-precision words and    10 shell-pairs
 PrismC:  IPart=    30 DynPar=F LinDyn=F Incr=           1 UseFst=F UseS4=T ISplat=2.
 PrismC was handed    12581459 working-precision words and    10 shell-pairs
 Enter PrismC:  IPart= 23 JobTyp=22 DoJE=F Cont=F.
 PrismC:  IPart=     6 DynPar=F LinDyn=F Incr=           1 UseFst=F UseS4=T ISplat=2.
 PrismC was handed    12581459 working-precision words and    10 shell-pairs
 PrismC:  IPart=    23 DynPar=F LinDyn=F Incr=           1 UseFst=F UseS4=T ISplat=2.
 Enter PrismC:  IPart=  1 JobTyp=22 DoJE=F Cont=F.
 PrismC was handed    12581459 working-precision words and    10 shell-pairs
 Enter PrismC:  IPart=  4 JobTyp=22 DoJE=F Cont=F.
 PrismC:  IPart=     1 DynPar=F LinDyn=F Incr=           1 UseFst=F UseS4=T ISplat=2.
 PrismC was handed    12581459 working-precision words and    10 shell-pairs
 PrismC:  IPart=     4 DynPar=F LinDyn=F Incr=           1 UseFst=F UseS4=T ISplat=2.
 PrismC was handed    12581459 working-precision words and    10 shell-pairs
 Enter PrismC:  IPart= 22 JobTyp=22 DoJE=F Cont=F.
 Enter PrismC:  IPart= 14 JobTyp=22 DoJE=F Cont=F.
 PrismC:  IPart=    22 DynPar=F LinDyn=F Incr=           1 UseFst=F UseS4=T ISplat=2.
 PrismC was handed    12581459 working-precision words and    10 shell-pairs
 PrismC:  IPart=    14 DynPar=F LinDyn=F Incr=           1 UseFst=F UseS4=T ISplat=2.
 PrismC was handed    12581459 working-precision words and    10 shell-pairs
 Enter PrismC:  IPart= 16 JobTyp=22 DoJE=F Cont=F.
 PrismC:  IPart=    16 DynPar=F LinDyn=F Incr=           1 UseFst=F UseS4=T ISplat=2.
 PrismC was handed    12581459 working-precision words and    10 shell-pairs
 Enter PrismC:  IPart= 12 JobTyp=22 DoJE=F Cont=F.
 PrismC:  IPart=    12 DynPar=F LinDyn=F Incr=           1 UseFst=F UseS4=T ISplat=2.
 PrismC was handed    12581459 working-precision words and    10 shell-pairs
 Enter PrismC:  IPart= 24 JobTyp=22 DoJE=F Cont=F.
 PrismC:  IPart=    24 DynPar=F LinDyn=F Incr=           1 UseFst=F UseS4=T ISplat=2.
 PrismC was handed    12581459 working-precision words and    10 shell-pairs
 Enter PrismC:  IPart= 10 JobTyp=22 DoJE=F Cont=F.
 PrismC:  IPart=    10 DynPar=F LinDyn=F Incr=           1 UseFst=F UseS4=T ISplat=2.
 PrismC was handed    12581459 working-precision words and    10 shell-pairs
 Enter PrismC:  IPart=  2 JobTyp=22 DoJE=F Cont=F.
 PrismC:  IPart=     2 DynPar=F LinDyn=F Incr=           1 UseFst=F UseS4=T ISplat=2.
 PrismC was handed    12581459 working-precision words and    10 shell-pairs
 IPart= 15 NShTot=           1 NShNF=           1 NShFF=           0 MinMC=      10
           NShCPU=           1 NBCPU=           1 AvBCPU=         1.0
           NShGPU=           0 NBGPU=           0 AvBGPU=         0.0
 IPart= 26 NShTot=           0 NShNF=           0 NShFF=           0 MinMC=      10
           NShCPU=           0 NBCPU=           0 AvBCPU=         0.0
           NShGPU=           0 NBGPU=           0 AvBGPU=         0.0
 IPart= 23 NShTot=           0 NShNF=           0 NShFF=           0 MinMC=      10
           NShCPU=           0 NBCPU=           0 AvBCPU=         0.0
           NShGPU=           0 NBGPU=           0 AvBGPU=         0.0
 IPart= 18 NShTot=           0 NShNF=           0 NShFF=           0 MinMC=      10
           NShCPU=           0 NBCPU=           0 AvBCPU=         0.0
           NShGPU=           0 NBGPU=           0 AvBGPU=         0.0
 IPart= 13 NShTot=           1 NShNF=           1 NShFF=           0 MinMC=      10
           NShCPU=           1 NBCPU=           1 AvBCPU=         1.0
           NShGPU=           0 NBGPU=           0 AvBGPU=         0.0
 IPart=  9 NShTot=           2 NShNF=           2 NShFF=           0 MinMC=      10
           NShCPU=           2 NBCPU=           2 AvBCPU=         1.0
           NShGPU=           0 NBGPU=           0 AvBGPU=         0.0
 IPart= 11 NShTot=           1 NShNF=           1 NShFF=           0 MinMC=      10
           NShCPU=           1 NBCPU=           1 AvBCPU=         1.0
           NShGPU=           0 NBGPU=           0 AvBGPU=         0.0
 IPart= 30 NShTot=           0 NShNF=           0 NShFF=           0 MinMC=      10
           NShCPU=           0 NBCPU=           0 AvBCPU=         0.0
           NShGPU=           0 NBGPU=           0 AvBGPU=         0.0
 IPart=  5 NShTot=           4 NShNF=           4 NShFF=           0 MinMC=      10
           NShCPU=           4 NBCPU=           4 AvBCPU=         1.0
           NShGPU=           0 NBGPU=           0 AvBGPU=         0.0
 IPart= 16 NShTot=           0 NShNF=           0 NShFF=           0 MinMC=      10
           NShCPU=           0 NBCPU=           0 AvBCPU=         0.0
           NShGPU=           0 NBGPU=           0 AvBGPU=         0.0
 IPart= 28 NShTot=           0 NShNF=           0 NShFF=           0 MinMC=      10
           NShCPU=           0 NBCPU=           0 AvBCPU=         0.0
           NShGPU=           0 NBGPU=           0 AvBGPU=         0.0
 IPart= 12 NShTot=           1 NShNF=           1 NShFF=           0 MinMC=      10
           NShCPU=           1 NBCPU=           1 AvBCPU=         1.0
           NShGPU=           0 NBGPU=           0 AvBGPU=         0.0
 IPart= 22 NShTot=           0 NShNF=           0 NShFF=           0 MinMC=      10
           NShCPU=           0 NBCPU=           0 AvBCPU=         0.0
           NShGPU=           0 NBGPU=           0 AvBGPU=         0.0
 IPart= 24 NShTot=           0 NShNF=           0 NShFF=           0 MinMC=      10
           NShCPU=           0 NBCPU=           0 AvBCPU=         0.0
           NShGPU=           0 NBGPU=           0 AvBGPU=         0.0
 IPart= 14 NShTot=           1 NShNF=           1 NShFF=           0 MinMC=      10
           NShCPU=           1 NBCPU=           1 AvBCPU=         1.0
           NShGPU=           0 NBGPU=           0 AvBGPU=         0.0
 IPart= 10 NShTot=           2 NShNF=           2 NShFF=           0 MinMC=      10
           NShCPU=           2 NBCPU=           2 AvBCPU=         1.0
           NShGPU=           0 NBGPU=           0 AvBGPU=         0.0
 IPart=  1 NShTot=           6 NShNF=           6 NShFF=           0 MinMC=      10
           NShCPU=           6 NBCPU=           6 AvBCPU=         1.0
           NShGPU=           0 NBGPU=           0 AvBGPU=         0.0
 IPart=  2 NShTot=           6 NShNF=           6 NShFF=           0 MinMC=      10
           NShCPU=           6 NBCPU=           6 AvBCPU=         1.0
           NShGPU=           0 NBGPU=           0 AvBGPU=         0.0
 IPart= 20 NShTot=           0 NShNF=           0 NShFF=           0 MinMC=      10
           NShCPU=           0 NBCPU=           0 AvBCPU=         0.0
           NShGPU=           0 NBGPU=           0 AvBGPU=         0.0
 IPart=  8 NShTot=           3 NShNF=           3 NShFF=           0 MinMC=      10
           NShCPU=           3 NBCPU=           3 AvBCPU=         1.0
           NShGPU=           0 NBGPU=           0 AvBGPU=         0.0
 IPart=  7 NShTot=           3 NShNF=           3 NShFF=           0 MinMC=      10
           NShCPU=           3 NBCPU=           3 AvBCPU=         1.0
           NShGPU=           0 NBGPU=           0 AvBGPU=         0.0
 IPart=  0 NShTot=          10 NShNF=          10 NShFF=           0 MinMC=      10
           NShCPU=          10 NBCPU=          10 AvBCPU=         1.0
           NShGPU=           0 NBGPU=           0 AvBGPU=         0.0
 IPart=  6 NShTot=           3 NShNF=           3 NShFF=           0 MinMC=      10
           NShCPU=           3 NBCPU=           3 AvBCPU=         1.0
           NShGPU=           0 NBGPU=           0 AvBGPU=         0.0
 IPart=  4 NShTot=           5 NShNF=           5 NShFF=           0 MinMC=      10
           NShCPU=           5 NBCPU=           5 AvBCPU=         1.0
           NShGPU=           0 NBGPU=           0 AvBGPU=         0.0
 IPart= 19 NShTot=           0 NShNF=           0 NShFF=           0 MinMC=      10
           NShCPU=           0 NBCPU=           0 AvBCPU=         0.0
           NShGPU=           0 NBGPU=           0 AvBGPU=         0.0
 IPart= 29 NShTot=           0 NShNF=           0 NShFF=           0 MinMC=      10
           NShCPU=           0 NBCPU=           0 AvBCPU=         0.0
           NShGPU=           0 NBGPU=           0 AvBGPU=         0.0
 IPart= 25 NShTot=           0 NShNF=           0 NShFF=           0 MinMC=      10
           NShCPU=           0 NBCPU=           0 AvBCPU=         0.0
           NShGPU=           0 NBGPU=           0 AvBGPU=         0.0
 IPart= 31 NShTot=           0 NShNF=           0 NShFF=           0 MinMC=      10
           NShCPU=           0 NBCPU=           0 AvBCPU=         0.0
           NShGPU=           0 NBGPU=           0 AvBGPU=         0.0
 IPart= 21 NShTot=           0 NShNF=           0 NShFF=           0 MinMC=      10
           NShCPU=           0 NBCPU=           0 AvBCPU=         0.0
           NShGPU=           0 NBGPU=           0 AvBGPU=         0.0
 IPart= 17 NShTot=           0 NShNF=           0 NShFF=           0 MinMC=      10
           NShCPU=           0 NBCPU=           0 AvBCPU=         0.0
           NShGPU=           0 NBGPU=           0 AvBGPU=         0.0
 IPart= 27 NShTot=           0 NShNF=           0 NShFF=           0 MinMC=      10
           NShCPU=           0 NBCPU=           0 AvBCPU=         0.0
           NShGPU=           0 NBGPU=           0 AvBGPU=         0.0
 IPart=  3 NShTot=           6 NShNF=           6 NShFF=           0 MinMC=      10
           NShCPU=           6 NBCPU=           6 AvBCPU=         1.0
           NShGPU=           0 NBGPU=           0 AvBGPU=         0.0
 CoulSu:  NxtVal=             33 LenVP=       12581460 MinMC=      10.
 Polarizability after L703:
                1             2             3 
      1  0.346127D+01
      2  0.000000D+00  0.346127D+01
      3  0.000000D+00  0.000000D+00  0.651314D+01
 Dipole Derivatives after L703:
                 1             2             3             4             5 
      1   0.244699D-01  0.000000D+00  0.000000D+00 -0.244699D-01  0.000000D+00
      2   0.000000D+00  0.244699D-01  0.000000D+00  0.000000D+00 -0.244699D-01
      3   0.000000D+00  0.000000D+00 -0.533052D+00  0.000000D+00  0.000000D+00
                 6 
      1   0.000000D+00
      2   0.000000D+00
      3   0.533052D+00
 Hessian after L703:
                1             2             3             4             5 
      1 -0.532819D-02
      2  0.000000D+00 -0.532819D-02
      3  0.000000D+00  0.000000D+00  0.161189D+01
      4  0.532819D-02  0.000000D+00  0.000000D+00 -0.532819D-02
      5  0.000000D+00  0.532819D-02  0.000000D+00  0.000000D+00 -0.532819D-02
      6  0.000000D+00  0.000000D+00 -0.161189D+01  0.000000D+00  0.000000D+00
                6 
      6  0.161189D+01
 Leave Link  703 at Sun Dec 28 17:27:43 2025, MaxMem=   402653184 cpu:               7.1 elap:               0.3
 (Enter /cluster/software/Gaussian/g16_B.01/l716.exe)
 FrcOut:
 IF    =        28 IFX   =        34 IFXYZ =        40
 IFFX  =        46 IFFFX =        67 IFLen =         6
 IFFLen=        21 IFFFLn=         0 IEDerv=        67
 LEDerv=       341 IFroze=       510 ICStrt=       761
 Dipole        =-3.78199470D-15 3.24666953D-15 5.27920216D-02
 DipoleDeriv   = 2.44698882D-02 1.58686492D-16 8.08574806D-16
                 4.36395774D-16 2.44698882D-02-1.34457143D-15
                -1.05356475D-15-4.26474626D-16-5.33051765D-01
                -2.44698882D-02-3.39097733D-16-8.08574806D-16
                -3.53129048D-16-2.44698882D-02 1.34457143D-15
                 1.05356475D-15 4.26474626D-16 5.33051765D-01
 Polarizability= 3.46126901D+00 2.16493490D-15 3.46126901D+00
                 8.04576464D-15-5.98698531D-15 6.51314216D+00
 PolarDeriv    = 1.41703400D-14-8.57879566D-15-4.05268835D-16
                 1.41458880D+00-2.33654893D-15-1.28926805D-14
                -1.64483305D-15 7.28780440D-15-1.88024244D-14
                -7.08330971D-16 1.41458880D+00-9.80805008D-16
                 1.18816884D+00 1.05064662D-16 1.18816884D+00
                 7.22536787D-17-6.18433046D-15 5.99926896D+00
                -1.52138814D-14 9.29214013D-15 4.05268835D-16
                -1.41458880D+00 2.11450432D-15 1.28926805D-14
                 1.64483305D-15-7.80957514D-15 2.02291133D-14
                 7.08330971D-16-1.41458880D+00 9.80805008D-16
                -1.18816884D+00-9.81257678D-17-1.18816884D+00
                -5.94024418D-16 6.89767493D-15-5.99926896D+00
 HyperPolar    =-6.25455788D-14 2.80625906D-14-2.08485263D-14
                 8.41877717D-14 5.57482883D+00-6.70212150D-15
                 5.57482883D+00 2.04951178D-16-1.63019831D-14
                -4.60712900D+00
 Quadrupole    = 7.48136414D-01 7.48136414D-01-1.49627283D+00
                 1.51085836D-16 6.85373052D-15-4.89168950D-15
 -------------------------------------------------------------------
 Center     Atomic                   Forces (Hartrees/Bohr)
 Number     Number              X              Y              Z
 -------------------------------------------------------------------
      1        8          -0.000000000    0.000000000    0.011495191
      2        6           0.000000000   -0.000000000   -0.011495191
 -------------------------------------------------------------------
 Cartesian Forces:  Max     0.011495191 RMS     0.006636752
 Force constants in Cartesian coordinates: 
                1             2             3             4             5 
      1 -0.532819D-02
      2  0.000000D+00 -0.532819D-02
      3  0.000000D+00  0.000000D+00  0.161189D+01
      4  0.532819D-02  0.000000D+00  0.000000D+00 -0.532819D-02
      5  0.000000D+00  0.532819D-02  0.000000D+00  0.000000D+00 -0.532819D-02
      6  0.000000D+00  0.000000D+00 -0.161189D+01  0.000000D+00  0.000000D+00
                6 
      6  0.161189D+01
 Final forces over variables, Energy=-1.11225408D+02:
 -2.79309109D-09
 Leave Link  716 at Sun Dec 28 17:27:43 2025, MaxMem=   402653184 cpu:               0.9 elap:               0.1
 (Enter /cluster/software/Gaussian/g16_B.01/l106.exe)
 NDeriv=      1 NFrqRd=  0 NDerD0=      0 MskFDP=       0 MskDFD=       0 MskDF0=       0
 Re-enter D2Numr:  normal mode   1 step-down number 1
 Max difference between Dipole analytic and numerical normal mode 1st derivatives:
 I=     3 ID=     1 Difference=    2.3740066382D-06
 Max difference between Dipole analytic and numerical normal mode 2nd derivatives:
 I=     3 ID=     1 Difference=    1.6576828332D-05
 Max difference between Polar analytic and numerical normal mode 1st derivatives:
 I=     6 ID=     1 Difference=    6.8678724543D-06
 Max difference between Polar analytic and numerical normal mode 2nd derivatives:
 I=     6 ID=     1 Difference=    7.7644691784D-05
 FinFTb:  IFil= 1 IFilD=  777 LTop=  1 LFil=       341 LTop1=  0 IMask=  1
 FinFTb:  IFil= 2 IFilD=  782 LTop=  1 LFil=        90 LTop1=  0 IMask=  1
 Leave Link  106 at Sun Dec 28 17:27:43 2025, MaxMem=   402653184 cpu:               4.1 elap:               0.2
 (Enter /cluster/software/Gaussian/g16_B.01/l716.exe)
 FrcOut:
 IF    =        37 IFX   =        43 IFXYZ =        49
 IFFX  =        55 IFFFX =        76 IFLen =         6
 IFFLen=        21 IFFFLn=        56 IEDerv=       132
 LEDerv=       341 IFroze=      1437 ICStrt=      1688
 Dipole        = 0.00000000D+00 0.00000000D+00 4.89322464D-02
 DipoleDeriv   = 2.26052107D-02 0.00000000D+00 0.00000000D+00
                 0.00000000D+00 2.26052107D-02 0.00000000D+00
                 0.00000000D+00 0.00000000D+00-5.36572106D-01
                -2.26052107D-02 0.00000000D+00 0.00000000D+00
                 0.00000000D+00-2.26052107D-02 0.00000000D+00
                 0.00000000D+00 0.00000000D+00 5.36572106D-01
 Polarizability= 3.46982838D+00 0.00000000D+00 3.46982838D+00
                 0.00000000D+00 0.00000000D+00 6.55651970D+00
 PolarDeriv    = 0.00000000D+00 0.00000000D+00 0.00000000D+00
                 1.42595744D+00 0.00000000D+00 0.00000000D+00
                 0.00000000D+00 0.00000000D+00 0.00000000D+00
                 0.00000000D+00 1.42595744D+00 0.00000000D+00
                 1.18382081D+00 0.00000000D+00 1.18382081D+00
                 0.00000000D+00 0.00000000D+00 6.02164291D+00
                 0.00000000D+00 0.00000000D+00 0.00000000D+00
                -1.42595744D+00 0.00000000D+00 0.00000000D+00
                 0.00000000D+00 0.00000000D+00 0.00000000D+00
                 0.00000000D+00-1.42595744D+00 0.00000000D+00
                -1.18382081D+00 0.00000000D+00-1.18382081D+00
                 0.00000000D+00 0.00000000D+00-6.02164291D+00
 HyperPolar    = 0.00000000D+00 0.00000000D+00 0.00000000D+00
                 0.00000000D+00 5.60102212D+00 0.00000000D+00
                 5.60102212D+00 0.00000000D+00 0.00000000D+00
                -4.64109277D+00
 Quadrupole    = 7.47447365D-01 7.47447365D-01-1.49489473D+00
                 0.00000000D+00 0.00000000D+00 0.00000000D+00
 Read normal modes, IRwNMS= 10765 IRotNM=-2 NVibU=     1.
 Recovering previously computed normal modes.
 NorSel:  MapVib=      1
 Harmonic frequencies (cm**-1), IR intensities (KM/Mole), Raman scattering
 activities (A**4/AMU), depolarization ratios for plane and unpolarized
 incident light, reduced masses (AMU), force constants (mDyne/A),
 and normal coordinates:
                           1
                          SG
       Frequencies ---  2462.8673
    Reduced masses ---    13.4388
   Force constants ---    48.0276
    IR Intensities ---    40.9377
  Raman Activities ---     5.8985
    Depol. (Plane) ---     0.1576
    Depol. (Unpol) ---     0.2723
 Coord Atom Element:
   1     1     8          0.00000
   2     1     8          0.00000
   3     1     8         -0.60012
   1     2     6          0.00000
   2     2     6          0.00000
   3     2     6          0.79991
 Harmonic frequencies (cm**-1), IR intensities (KM/Mole), Raman scattering
 activities (A**4/AMU), depolarization ratios for plane and unpolarized
 incident light, reduced masses (AMU), force constants (mDyne/A),
 and normal coordinates:
                      1
                     SG
 Frequencies --   2462.8673
 Red. masses --     13.4388
 Frc consts  --     48.0276
 IR Inten    --     40.9377
 Raman Activ --      5.8985
 Depolar (P) --      0.1576
 Depolar (U) --      0.2723
  Atom  AN      X      Y      Z
     1   8     0.00   0.00  -0.60
     2   6     0.00   0.00   0.80

 -------------------
 - Thermochemistry -
 -------------------
 Temperature   298.150 Kelvin.  Pressure   1.00000 Atm.
 Atom     1 has atomic number  8 and mass  15.99491
 Atom     2 has atomic number  6 and mass  12.00000
 Molecular mass:    27.99491 amu.
 Principal axes and moments of inertia in atomic units:
                           1         2         3
     Eigenvalues --     0.00000  32.12605  32.12605
           X            0.00000  -0.00000   1.00000
           Y            0.00000   1.00000   0.00000
           Z            1.00000   0.00000   0.00000
 This molecule is a prolate symmetric top.
 Rotational symmetry number  1.
 Rotational temperature (Kelvin)      2.69607
 Rotational constant (GHZ):          56.176882
 Zero-point vibrational energy      14731.2 (Joules/Mol)
                                    3.52085 (Kcal/Mol)
 Vibrational temperatures:   3543.52
          (Kelvin)
 
 Zero-point correction=                           0.005611 (Hartree/Particle)
 Thermal correction to Energy=                    0.007971
 Thermal correction to Enthalpy=                  0.008916
 Thermal correction to Gibbs Free Energy=        -0.013540
 Sum of electronic and zero-point Energies=           -111.219839
 Sum of electronic and thermal Energies=              -111.217478
 Sum of electronic and thermal Enthalpies=            -111.216534
 Sum of electronic and thermal Free Energies=         -111.238990
 
                     E (Thermal)             CV                S
                      KCal/Mol        Cal/Mol-Kelvin    Cal/Mol-Kelvin
 Total                    5.002              4.970             47.262
 Electronic               0.000              0.000              0.000
 Translational            0.889              2.981             35.923
 Rotational               0.592              1.987             11.339
 Vibrational              3.521              0.002              0.000
                       Q            Log10(Q)             Ln(Q)
 Total Bot       0.169037D+07          6.227982         14.340459
 Total V=0       0.643843D+09          8.808780         20.282966
 Vib (Bot)       0.262546D-02         -2.580795         -5.942500
 Vib (V=0)       0.100001D+01          0.000003          0.000007
 Electronic      0.100000D+01          0.000000          0.000000
 Translational   0.582201D+07          6.765073         15.577155
 Rotational      0.110587D+03          2.043704          4.705803
 Forces in standard orientation:
 -------------------------------------------------------------------
 Center     Atomic                   Forces (Hartrees/Bohr)
 Number     Number              X              Y              Z
 -------------------------------------------------------------------
      1        8           0.000000000    0.000000000    0.000000003
      2        6           0.000000000    0.000000000   -0.000000003
 -------------------------------------------------------------------
 Cartesian Forces:  Max     0.000000003 RMS     0.000000002
 ***** Axes restored to original set *****
 Rotating derivatives, DoTrsp=F IDiff=-3 LEDeriv=    340 LFDPrp=       0 LDFDPr=       0.
 -------------------------------------------------------------------
 Center     Atomic                   Forces (Hartrees/Bohr)
 Number     Number              X              Y              Z
 -------------------------------------------------------------------
      1        8          -0.000000000   -0.000000000    0.000000003
      2        6          -0.000000000   -0.000000000   -0.000000003
 -------------------------------------------------------------------
 Cartesian Forces:  Max     0.000000003 RMS     0.000000002
 Force constants in Cartesian coordinates: 
                1             2             3             4             5 
      1  0.000000D+00
      2  0.000000D+00  0.000000D+00
      3  0.000000D+00  0.000000D+00  0.157383D+01
      4  0.000000D+00  0.000000D+00  0.000000D+00  0.000000D+00
      5  0.000000D+00  0.000000D+00  0.000000D+00  0.000000D+00  0.000000D+00
      6  0.000000D+00  0.000000D+00 -0.157383D+01  0.000000D+00  0.000000D+00
                6 
      6  0.157383D+01
 Cartesian forces in FCRed:
 I=    1 X=   0.000000000000D+00 Y=   0.000000000000D+00 Z=   0.000000000000D+00
 I=    2 X=   0.000000000000D+00 Y=   0.000000000000D+00 Z=   0.000000000000D+00
 Cartesian force constants in FCRed: 
                1             2             3             4             5 
      1  0.000000D+00
      2  0.000000D+00  0.000000D+00
      3  0.000000D+00  0.000000D+00  0.157383D+01
      4  0.000000D+00  0.000000D+00  0.000000D+00  0.000000D+00
      5  0.000000D+00  0.000000D+00  0.000000D+00  0.000000D+00  0.000000D+00
      6  0.000000D+00  0.000000D+00 -0.157383D+01  0.000000D+00  0.000000D+00
                6 
      6  0.157383D+01
 Red2BG:  D1=  2.00D+00 OD1=  0.00D+00 B2RMS=  0.00D+00 IAprox=1
 Red2BG is reusing G-inverse.
 Internal forces: 
                 1 
      1   0.000000D+00
 Internal force constants: 
                1 
      1  0.157383D+01
 Force constants in internal coordinates: 
                1 
      1  0.157383D+01
 Final forces over variables, Energy=-1.11225450D+02:
 -2.79309109D-09
 Leave Link  716 at Sun Dec 28 17:27:43 2025, MaxMem=   402653184 cpu:               1.1 elap:               0.1
 (Enter /cluster/software/Gaussian/g16_B.01/l717.exe)

 **********************************************************************

             Second-order Perturbative Anharmonic Analysis

 **********************************************************************

     ==================================================
            Settings for Anharmonic Calculations
     ==================================================

 Using the following non-standard input for DiNa:
 ------------------------------------------------

 Spectro=MaxQuanta=3
 --- end of non-standard input.

 Conversion from  Hartrees  Bohrs Rad  
             to   attoJoule Angs. Rad  
 Scaling Factors
  Distances:   0.5291772  Angles:   1.0000000  Energies:      4.3597443

 Cut-offs for the present calculation
 ------------------------------------
   ## Tolerances on Data ##
 - Coordinates:       .52918D-05 Angs.
 - Angles:            .10000D-04 Rad  
 - Energies:          .19619D-07 attoJoule
 - 1st derivs.:       .37074D-02
 - 2nd derivs.:       .37074D-04
 - 3rd derivs.:       .37074D-04
 - 4th derivs.:       .37074D-04
 - Frequencies:       .10000D+01 cm-1
 - Coriolis Couplings:.10000D-02
 - Inertia Moments:   .10000D-03 amu Angs.**2
   ## Tolerances used for Resonances ##
 FERMI RESONANCES:
 - Max. Freq. Diff.                       0.2D+03 cm-1
 - Min. Diff. PT2 vs Variational:         0.1D+01 cm-1
 1-1 DARLING-DENNISON RESONANCES:
 - Max. Freq. Diff.:                      0.1D+03 cm-1
 - Min. value of Darling-Dennison terms:  0.1D+02 cm-1
 - Add. threshold for intensity term:     0.1D+01 cm-1
 1-3 DARLING-DENNISON RESONANCES:
 - Max. Freq. Diff.:                      0.1D+03 cm-1
 - Min. value of Darling-Dennison terms:  0.1D+02 cm-1
 - Add. threshold for intensity term:     0.3D+00 cm-1
 2-2 DARLING-DENNISON RESONANCES:
 - Max. Freq. Diff.:                      0.1D+03 cm-1
 - Min. value of Darling-Dennison terms:  0.1D+02 cm-1

     ==================================================
                      Reference System
     ==================================================

 NOTE: The system is set in Eckart orientation for the anharmonic
       treatment.
 Symm:  InNGrp=     InAxis=0 RotPrA=T RotCs=F.
 PtGrp-- Translation vector:   -0.000000   -0.000000    0.000169
 PtGrp-- Principal moments and axes of charge:
         Moments:        0.0000000       32.1260477       32.1260477
         Axes   :         0.000000        -0.000000         1.000000
                          0.000000         1.000000         0.000000
                          1.000000         0.000000         0.000000
 PtGrp-- Principal moments and axes of charge:
         Moments:        0.0000000       32.1260477       32.1260477
         Axes   :         0.000000        -0.000000         1.000000
                          0.000000         1.000000         0.000000
                          1.000000         0.000000         0.000000
 Coordinates after PtGrp: 
                 1             2             3 
      1   0.000000D+00  0.000000D+00  0.927873D+00
      2   0.000000D+00  0.000000D+00 -0.123677D+01
 Rotation matrix after PtGrp: 
                 1             2             3 
      1   0.100000D+01  0.000000D+00  0.000000D+00
      2   0.000000D+00  0.100000D+01  0.000000D+00
      3   0.000000D+00  0.000000D+00  0.100000D+01
 
 Atom           X                  Y                  Z
 ----------------------------------------------------------------
  O       0.0000000000000    0.0000000000000    0.4910094704184
  C       0.0000000000000    0.0000000000000   -0.6544712138979
 ----------------------------------------------------------------

     ==================================================
               Analysis of the Rotor Symmetry
     ==================================================

 Framework Group : C*V 
 Rotor Type      : Linear Molecule
 Inertia moments : X=    32.12605 , Y=    32.12605 , Z=     0.00000
 Representation  : Ir Representation, Iz < Ix < Iy

 Axes Definition for the Symmetric-Top Representation
 ----------------------------------------------------
 Axis Z automatically chosen to be collinear with Z from Eckart orient.
 NOTE: In Vibro-rotational analysis, this will be referred to as the
       spectroscopic orientation.

     ==================================================
                   Data Source Definition
     ==================================================

 Main data sources
 -----------------
 Harmonic data taken from: current calculation
 Anharmonic data taken from: current calculation

     ==================================================
           Input Data Extraction and Preparation
     ==================================================

 Data for Harmonic Potential Energy Surface
 ------------------------------------------
 Read normal modes, IRwNMS= 10765 IRotNM= 0 NVibU=     1.

 Definition of the model system: Active modes
 --------------------------------------------
 The 1 Active Modes are:
     1

 Data for Anharmonic Potential Energy Surface
 --------------------------------------------
 Read normal modes, IRwNMS= 10765 IRotNM= 0 NVibU=     1.

 Data for Electric Dipole
 ------------------------
 Property available.
 Read normal modes, IRwNMS= 10765 IRotNM= 0 NVibU=     1.

 Data for Polarizability Tensor
 ------------------------------
 Property available.
 Read normal modes, IRwNMS= 10765 IRotNM= 0 NVibU=     1.

     ==================================================
        Vibro-Rotational Analysis Based on Symmetry
     ==================================================

 Representation SG  
 ------------------
    Z Translation
    1 Vibrations with frequencies:
   2462.87

 Representation PI   (doubly degenerate)
 --------------------------------------
    X Translation
    Y Translation
    X Rotation
    Y Rotation
 No Vibration

 Input/Output information
 ------------------------
 Normal modes will be PRINTED in DESCENDING order (imag. freq. first)
   and sorted by irreducible representation
 The connection between this new numbering (A) and the one used before
   (H) is reported in the present equivalency table:
 ----+------+
 (H) |     1|
 (A) |     1|
 ----+------+
 
 Normal modes will be READ in ASCENDING order (imag. freq. first)

 TIP: To use the same numbering as in the whole output, use the option
      "Print=NMOrder=AscNoIrrep" in the "ReadAnharm section"

 TIP: To use the same numbering for reading and printing, use the option
      "DataSrc=NMOrder=Print" in the "ReadAnharm section"

 Analysis of symmetry-allowed terms
 ----------------------------------
 Symmetry allowed Coriolis couplings

 Symmetry allowed third derivatives
     1     1     1  SG  SG  SG  

 Symmetry allowed (iijk) fourth derivatives
     1     1     1     1  SG  SG  SG  SG  

                             Possible   Symmetry allowed
 Coriolis couplings:             3            0
 Third derivatives :             1            1
 Fourth derivatives: total       1            1
                     (ii|jj)     1            1
                     (ii|jk)     0            0

 WARNING: Anharmonic treatment of linear tops is experimental.
          Moreover, an hybrid treatment is used to simulate spectra:
          - Energy: equations including degenerate modes are used.
          - Intensity: summation done on N' modes, considering only one mode
            per couple of degenerate modes. No variational correction done.

 Eckart Orientation
 ------------------
 Atom           X                  Y                  Z
 ----------------------------------------------------------------
  O       0.0000000000000    0.0000000000000    0.4910094704184
  C       0.0000000000000    0.0000000000000   -0.6544712138979
 ----------------------------------------------------------------

     ==================================================
                   Coriolis Couplings
     ==================================================
 No Coriolis coupling for diatomic molecules

     ==================================================
     Printing Energy derivatives and Coriolis Couplings
     ==================================================

 ........................................................
 :   Reference Energy (a.u.):       -0.111225D+03       :
 :                    (cm-1):       -0.506780D-03       :
 :......................................................:

 ........................................................
 :                   CORIOLIS COUPLINGS                 :
 :......................................................:

    Ax       I      J          Zeta(I,J)


 Num. of Coriolis couplings larger than  0.100D-02: 0 over 3

 ........................................................
 :      QUADRATIC FORCE CONSTANTS IN NORMAL MODES       :
 :                                                      :
 : FI =  Frequency [cm-1]                               :
 : k  =  Force Const.[ attoJ * amu(-1) * ang(-2) ]      :
 : K  =  Force Const.[ Hartrees * amu(-1) * bohr(-2) ]  :
 :......................................................:

      I      J                  FI(I,J)       k(I,J)       K(I,J)

      1      1                 2462.86727      3.57382      0.22955

 Num. of 2nd derivatives larger than  0.371D-04: 1 over 1

 ........................................................
 :        CUBIC FORCE CONSTANTS IN NORMAL MODES         :
 :                                                      :
 : FI =  Reduced values [cm-1]  (default input)         :
 : k  =  Cubic Force Const.[AttoJ*amu(-3/2)*Ang(-3)]    :
 : K  =  Cubic Force Const.[Hartree*amu(-3/2)*Bohr(-3)] :
 :......................................................:

      I      J      K          FI(I,J,K)     k(I,J,K)     K(I,J,K)

      1      1      1          -689.68636     -8.55362     -0.29073

 Num. of 3rd derivatives larger than  0.371D-04: 1 over 1

 ........................................................
 :                                                      :
 :       QUARTIC FORCE CONSTANTS IN NORMAL MODES        :
 :                                                      :
 : FI =  Reduced values [cm-1]  (default input)         :
 : k  =  Quartic Force Const.[AttoJ*amu(-2)*Ang(-4)]    :
 : K  =  Quartic Force Const.[Hartree*amu(-2)*Bohr(-4)] :
 :......................................................:

      I      J      K      L  FI(I,J,K,L)   k(I,J,K,L)   K(I,J,K,L)

      1      1      1      1    168.25895     17.83544      0.32079

 Num. of 4th derivatives larger than  0.371D-04: 1 over 1

 ........................................................
 :                                                      :
 :      ELECTRIC-FIELD PROPERTIES AND DERIVATIVES       :
 :                                                      :
 :......................................................:

 Electric Dipole
 ---------------

 Unit of the property: Debye
 ------------------------------------------------------------------------------
    |    i      j      k   |              X              Y              Z
 ------------------------------------------------------------------------------
 P0 |                      |         0.000000D+00   0.000000D+00   0.124373D+00
 P1 |      1               |         0.000000D+00   0.000000D+00  -0.520857D+00
 P2 |      1      1        |         0.184295D-13  -0.880646D-14  -0.179637D+00
 P3 |      1      1      1 |         0.000000D+00   0.000000D+00   0.126469D+00

 Polarizability Tensor
 ---------------------

 Unit of the property: a.u.
 ------------------------------------------------------------------------------
    |    i      j      k   |     |        X              Y              Z
 ------------------------------------------------------------------------------
    |                      |  X  |   0.346983D+01
 P0 |                      |  Y  |   0.000000D+00   0.346983D+01
    |                      |  Z  |   0.000000D+00   0.000000D+00   0.655652D+01
    |                      |  X  |   0.452110D+00
 P1 |      1               |  Y  |   0.000000D+00   0.452110D+00
    |                      |  Z  |   0.000000D+00   0.000000D+00   0.229971D+01
    |                      |  X  |  -0.884025D-01
 P2 |      1      1        |  Y  |  -0.110977D-13  -0.884025D-01
    |                      |  Z  |   0.121263D-12   0.175223D-12   0.451164D+00
    |                      |  X  |  -0.561327D-01
 P3 |      1      1      1 |  Y  |   0.000000D+00  -0.561327D-01
    |                      |  Z  |   0.000000D+00   0.000000D+00  -0.106515D+00

     ==================================================
                     Input for POLYMODE
     ==================================================

 ***************** cut here for POLYMODE input *****************
  1,  1,  1,  1,  1,  0,  0,  5,  0
SCF-CI
          Input generated by DiNa
  1, 1,  0.629627D-04 /
  1, 1, 1, -.622588D-06 /
  1, 1, 1, 1, 0.402250D-08 /
 0.585622D+05,0.585622D+05,0.000000D+00 /
 ***************** cut here for POLYMODE input *****************

     ==================================================
      Inertia Moments Derivatives w.r.t. Normal Modes
     ==================================================

 Units: amu^1/2.Ang

                 Ixx        Ixy        Iyy        Ixz        Iyz        Izz
 Q(     1)     5.99874    0.00000    5.99874    0.00000    0.00000    0.00000

     ==================================================
               Vibro-rotational Alpha Matrix
     ==================================================

 Vibro-Rot alpha Matrix (in cm^-1)
 ---------------------------------
                 A(z)           B(x)           C(y)
 Q(     1)       -0.00000            NaN            NaN

 Vibro-Rot alpha Matrix (in MHz)
 -------------------------------
                 A(z)           B(x)           C(y)
 Q(     1)       -0.00000            NaN            NaN

     ==================================================
          Quartic Centrifugal Distortion Constants
     ==================================================

 NOTE: Values in Cartesian coords. refer to the structure in Eckart orientation.

 Quartic Centrifugal Distortion Constants Tau (in cm^-1)
 -------------------------------------------------------

 IXYZ = 1 JXYZ = 1
                 1             2 
      1  -0.173560D-04 -0.000000D+00
      2  -0.000000D+00 -0.173560D-04

 IXYZ = 2 JXYZ = 1
                 1             2 
      1  -0.000000D+00 -0.000000D+00
      2  -0.000000D+00 -0.000000D+00

 IXYZ = 2 JXYZ = 2
                 1             2 
      1  -0.173560D-04 -0.000000D+00
      2  -0.000000D+00 -0.173560D-04

 Quartic Centrifugal Distortion Constants Tau Prime
 --------------------------------------------------
                      cm^-1                    MHz
 - Eckart orientation -
 TauP xxxx     -0.1735596478D-04        -0.5203187342D+00
 TauP xxyy     -0.1735596478D-04        -0.5203187342D+00
 TauP yyyy     -0.1735596478D-04        -0.5203187342D+00

 - Spectroscopic orientation -
 TauP aaaa      0.0000000000D+00         0.0000000000D+00
 TauP bbaa      0.0000000000D+00         0.0000000000D+00
 TauP bbbb     -0.1735596478D-04        -0.5203187342D+00

 Quartic Centrifugal Distortion Constants Tau Prime (Spectroscopic orient.)
 --------------------------------------------------------------------------
                      cm^-1                    MHz
 TauP xxxx     -0.1735596478D-04        -0.5203187342D+00
 TauP xxyy     -0.1735596478D-04        -0.5203187342D+00
 TauP yyyy     -0.1735596478D-04        -0.5203187342D+00
 cm-1                       MHz
 De    0.4338991195D-05         0.1300796836D+00

     ==================================================
           Sextic Centrifugal Distortion Constants
     ==================================================

 Quartic Centrifugal Distortion Constants Tau Prime (Spectroscopic orient.)
 --------------------------------------------------------------------------
                      cm^-1                    MHz
 TauP xxxx     -0.1735596478D-04        -0.5203187342D+00
 TauP xxyy     -0.1735596478D-04        -0.5203187342D+00
 TauP yyyy     -0.1735596478D-04        -0.5203187342D+00

 Sextic Distortion Constants
 ---------------------------
                       in cm-1                  in Hz
 Phi aaa         0.0000000000D+00         0.0000000000D+00
 Phi aab         0.0000000000D+00         0.0000000000D+00
 Phi abb         0.0000000000D+00         0.0000000000D+00
 Phi bbb         0.6099489327D-11         0.1828580898D+00

 Sextic Centrifugal Distortion Constants Phi (Spectroscopic orient.)
 -------------------------------------------------------------------
                       cm^-1                    MHz
 Phi xxx         0.6099489327D-11         0.1828580898D-06
 Phi yxx         0.0000000000D+00         0.0000000000D+00
 Phi yyx         0.0000000000D+00         0.0000000000D+00
 Phi yyy         0.6099489327D-11         0.1828580898D-06

 Linear molecule
 ---------------
                       cm^-1                    Hz
 He               0.6099489327D-11         0.1828580898D+00

     ==================================================
       Average Coordinates and Mean Square Amplitudes
     ==================================================

 NOTE: Temperature is given in K between parentheses
       For Cartesian and internal coords., units are given between
       parentheses next to each label

 Mean Square Amplitudes of Normal Coordinates (in amu.bohr^2)
 -----------------------------------------------------------
 Mode    <Q^2> (0)    <Q^2> (298.15)    <Q^2> (298.15) class.
    1     0.024443       0.024443          0.162384

 Average Normal Coordinates (in amu^1/2.bohr)
 --------------------------------------------
   Mode    <Q> (0)       <Q> (298.15)
      1     0.015479        0.015479

 Mean Square Amplitudes of Cartesian Coordinates
 -----------------------------------------------
    Label        <(S-Se)^2>^1/2 (0)    <(S-Se)^2>^1/2 (298.15)
 X(1)  (Angs)        0.000000              0.000000
 Y(1)  (Angs)        0.000000              0.000000
 Z(1)  (Angs)        0.013544              0.013544
 X(2)  (Angs)        0.000000              0.000000
 Y(2)  (Angs)        0.000000              0.000000
 Z(2)  (Angs)        0.018053              0.018053

 Average Cartesian Coordinates
 -----------------------------
    Label              Se         <S> = Sz (0)   <S> = Sz (298.15)
 X(1)  (Angs)       0.000000        0.000000        0.000000
 Y(1)  (Angs)       0.000000        0.000000        0.000000
 Z(1)  (Angs)       0.491009        0.492350        0.492350
 X(2)  (Angs)       0.000000        0.000000        0.000000
 Y(2)  (Angs)       0.000000        0.000000        0.000000
 Z(2)  (Angs)      -0.654471       -0.656259       -0.656259

 Internal coordinates for the Equilibrium structure (Se)
                           Interatomic distances:
                    1          2
     1  O    0.000000
     2  C    1.145481   0.000000

 Internal coordinates for the vibrationally average structure at 0K (Sz)
                           Interatomic distances:
                    1          2
     1  O    0.000000
     2  C    1.148609   0.000000

 Internal coordinates for the vibr. average structure at 298.15K (Sa)
                           Interatomic distances:
                    1          2
     1  O    0.000000
     2  C    1.148609   0.000000

     ==================================================
      Vibrational Average of Electric-Field Properties
     ==================================================

 Electric dipole
 ---------------
 P1(diag): diagonal term (k_iii P_i) for the vibrational contribution
 P1(vib) : vibrational contribution to P1 (k_ijj P_i)
 P1(rot) : rotation contribution to P1
   ## Vibrational contributions to averages at    0K (Unit: Debye) ##
 ---------------------------------------------------------------------------
          Mode |   P1(diag)     P1(vib)    P1(rot)        P2     |  P1(tot)+P2
 ---------------------------------------------------------------------------
 X           1 |   0.000D+00   0.000D+00   0.000D+00   0.225D-15 |   0.225D-15
 Y           1 |   0.000D+00   0.000D+00   0.000D+00  -0.108D-15 |  -0.108D-15
 Z           1 |  -0.806D-02  -0.806D-02   0.000D+00  -0.220D-02 |  -0.103D-01
 ---------------------------------------------------------------------------

   ## Contributions from 1st and 2nd derivatives (Unit:Debye, T=    0K) ##
 ----------------------------------------------------------------------
                P_0             P_1             P_2              <P>
 ----------------------------------------------------------------------
 X      |     0.0000D+00     0.0000D+00     0.2252D-15 |     0.2252D-15
 Y      |     0.0000D+00     0.0000D+00    -0.1076D-15 |    -0.1076D-15
 Z      |     0.1244D+00    -0.8062D-02    -0.2195D-02 |     0.1141D+00
 ----------------------------------------------------------------------

   ## Vibrational contributions to averages at  298K (Unit: Debye) ##
 ---------------------------------------------------------------------------
          Mode |   P1(diag)     P1(vib)    P1(rot)        P2     |  P1(tot)+P2
 ---------------------------------------------------------------------------
 X           1 |   0.000D+00   0.000D+00   0.000D+00   0.225D-15 |   0.225D-15
 Y           1 |   0.000D+00   0.000D+00   0.000D+00  -0.108D-15 |  -0.108D-15
 Z           1 |  -0.806D-02  -0.806D-02  -0.308D-05  -0.220D-02 |  -0.103D-01
 ---------------------------------------------------------------------------

   ## Contributions from 1st and 2nd derivatives (Unit:Debye, T=  298K) ##
 ----------------------------------------------------------------------
                P_0             P_1             P_2              <P>
 ----------------------------------------------------------------------
 X      |     0.0000D+00     0.0000D+00     0.2252D-15 |     0.2252D-15
 Y      |     0.0000D+00     0.0000D+00    -0.1076D-15 |    -0.1076D-15
 Z      |     0.1244D+00    -0.8066D-02    -0.2195D-02 |     0.1141D+00
 ----------------------------------------------------------------------

 ------------------------------------------------------------------------
  Property at reference geometry, Unit: Debye
 ------------------------------------------------------------------------
     X=     0.0000     Y=     0.0000     Z=     0.1244
 ------------------------------------------------------------------------
  Temperature:     0K, Unit: Debye
 ------------------------------------------------------------------------
     X=     0.0000     Y=    -0.0000     Z=     0.1141
 ------------------------------------------------------------------------
  Temperature:   298K, Unit: Debye
 ------------------------------------------------------------------------
     X=     0.0000     Y=    -0.0000     Z=     0.1141

 Polarizability tensor
 ---------------------
 P1(diag): diagonal term (k_iii P_i) for the vibrational contribution
 P1(vib) : vibrational contribution to P1 (k_ijj P_i)
 P1(rot) : rotation contribution to P1
   ## Vibrational contributions to averages at    0K (Unit: a.u.) ##
 ---------------------------------------------------------------------------
          Mode |   P1(diag)     P1(vib)    P1(rot)        P2     |  P1(tot)+P2
 ---------------------------------------------------------------------------
 XX          1 |   0.700D-02   0.700D-02   0.000D+00  -0.108D-02 |   0.592D-02
 XY          1 |   0.000D+00   0.000D+00   0.000D+00  -0.136D-15 |  -0.136D-15
 YY          1 |   0.700D-02   0.700D-02   0.000D+00  -0.108D-02 |   0.592D-02
 XZ          1 |   0.000D+00   0.000D+00   0.000D+00   0.148D-14 |   0.148D-14
 YZ          1 |   0.000D+00   0.000D+00   0.000D+00   0.214D-14 |   0.214D-14
 ZZ          1 |   0.356D-01   0.356D-01   0.000D+00   0.551D-02 |   0.411D-01
 ---------------------------------------------------------------------------

   ## Contributions from 1st and 2nd derivatives (Unit:a.u., T=    0K) ##
 ----------------------------------------------------------------------
                P_0             P_1             P_2              <P>
 ----------------------------------------------------------------------
 XX     |     0.3470D+01     0.6998D-02    -0.1080D-02 |     0.3476D+01
 XY     |     0.0000D+00     0.0000D+00    -0.1356D-15 |    -0.1356D-15
 YY     |     0.3470D+01     0.6998D-02    -0.1080D-02 |     0.3476D+01
 XZ     |     0.0000D+00     0.0000D+00     0.1482D-14 |     0.1482D-14
 YZ     |     0.0000D+00     0.0000D+00     0.2141D-14 |     0.2141D-14
 ZZ     |     0.6557D+01     0.3560D-01     0.5514D-02 |     0.6598D+01
 ----------------------------------------------------------------------

   ## Vibrational contributions to averages at  298K (Unit: a.u.) ##
 ---------------------------------------------------------------------------
          Mode |   P1(diag)     P1(vib)    P1(rot)        P2     |  P1(tot)+P2
 ---------------------------------------------------------------------------
 XX          1 |   0.700D-02   0.700D-02   0.380D-03  -0.108D-02 |   0.630D-02
 XY          1 |   0.000D+00   0.000D+00   0.000D+00  -0.136D-15 |  -0.136D-15
 YY          1 |   0.700D-02   0.700D-02   0.380D-03  -0.108D-02 |   0.630D-02
 XZ          1 |   0.000D+00   0.000D+00   0.000D+00   0.148D-14 |   0.148D-14
 YZ          1 |   0.000D+00   0.000D+00   0.000D+00   0.214D-14 |   0.214D-14
 ZZ          1 |   0.356D-01   0.356D-01   0.193D-02   0.551D-02 |   0.430D-01
 ---------------------------------------------------------------------------

   ## Contributions from 1st and 2nd derivatives (Unit:a.u., T=  298K) ##
 ----------------------------------------------------------------------
                P_0             P_1             P_2              <P>
 ----------------------------------------------------------------------
 XX     |     0.3470D+01     0.7378D-02    -0.1080D-02 |     0.3476D+01
 XY     |     0.0000D+00     0.0000D+00    -0.1356D-15 |    -0.1356D-15
 YY     |     0.3470D+01     0.7378D-02    -0.1080D-02 |     0.3476D+01
 XZ     |     0.0000D+00     0.0000D+00     0.1482D-14 |     0.1482D-14
 YZ     |     0.0000D+00     0.0000D+00     0.2142D-14 |     0.2142D-14
 ZZ     |     0.6557D+01     0.3753D-01     0.5514D-02 |     0.6600D+01
 ----------------------------------------------------------------------

 ------------------------------------------------------------------------
  Property at reference geometry, Unit: a.u.
 ------------------------------------------------------------------------
    XX=     3.4698
    YX=     0.0000    YY=     3.4698
    ZX=     0.0000    ZY=     0.0000    ZZ=     6.5565
 ------------------------------------------------------------------------
  Temperature:     0K, Unit: a.u.
 ------------------------------------------------------------------------
    XX=     3.4757
    YX=    -0.0000    YY=     3.4757
    ZX=     0.0000    ZY=     0.0000    ZZ=     6.5976
 ------------------------------------------------------------------------
  Temperature:   298K, Unit: a.u.
 ------------------------------------------------------------------------
    XX=     3.4761
    YX=    -0.0000    YY=     3.4761
    ZX=     0.0000    ZY=     0.0000    ZZ=     6.5996

     ==================================================
                     Anharmonic X Matrix
     ==================================================

 PT2 model: Deperturbed VPT2 (DVPT2)
 Ref.: V. Barone, J. Chem. Phys. 122, 1, 014108 (2005)

 Coriolis contributions to X Matrix (in cm^-1)
 ---------------------------------------------
                1
      1  0.000000D+00

 3rd Deriv. contributions to X Matrix (in cm^-1)
 -----------------------------------------------
                1
      1 -0.201183D+02

 4th Deriv. contributions to X Matrix (in cm^-1)
 -----------------------------------------------
                1
      1  0.105162D+02

 Total Anharmonic X Matrix (in cm^-1)
 ------------------------------------
                1
      1 -0.960210D+01

     ==================================================
          Computation of Wavefunction Coefficients
     ==================================================

 Final coefficients
 ------------------
                 1             2             3
      1   0.100000D+01  0.200000D+01  0.300882D+01

     ==================================================
                Anharmonic Zero Point Energy
     ==================================================

 Anharmonic X0 Term
 ------------------
 U term         : cm-1 =     0.00000 ; Kcal/mol =   0.000 ; KJ/mol =   0.000
 Coriolis       : cm-1 =     0.00000 ; Kcal/mol =   0.000 ; KJ/mol =   0.000
 Anharmonic     : cm-1 =     0.28191 ; Kcal/mol =   0.001 ; KJ/mol =   0.003
 Total X0       : cm-1 =     0.28191 ; Kcal/mol =   0.001 ; KJ/mol =   0.003

 Anharmonic Zero Point Energy
 ----------------------------
 Harmonic       : cm-1 =  1231.43364 ; Kcal/mol =   3.521 ; KJ/mol =  14.731
 Anharmonic Pot.: cm-1 =    -2.11861 ; Kcal/mol =  -0.006 ; KJ/mol =  -0.025
 Watson+Coriolis: cm-1 =     0.00000 ; Kcal/mol =   0.000 ; KJ/mol =   0.000
 Total Anharm   : cm-1 =  1229.31502 ; Kcal/mol =   3.515 ; KJ/mol =  14.706

 Comparison between old and new code
 -----------------------------------
 DZPE = ZPE(total) - ZPE(harmonic) [in cm^-1]
 Old DZPE: -0.21186D+01, New DZPE: -0.21186D+01
 Percentage: |old DZPE - New DZPE|/|old DZPE| =    -0.00%


     ==================================================
          Vibrational Energies at Anharmonic Level
     ==================================================

 Units: Vibrational energies and rotational constants in cm^-1.
 NOTE: Transition energies are given with respect to the ground state.

 Reference Data
 --------------
                                          E(harm)  E(anharm)     Ba(x)      Ca(y)
 Equilibrium Geometry                                          1.873859   1.873859
 Ground State                             1231.434  1229.315        NaN        NaN

 Fundamental Bands
 -----------------
     Mode(n)      Status                  E(harm)  E(anharm)     Ba(x)      Ca(y)
        1(1)      active                  2462.867  2443.663        NaN        NaN

 Overtones
 ---------
     Mode(n)                              E(harm)  E(anharm)     Ba(x)      Ca(y)
        1(2)                              4925.735  4868.122        NaN        NaN
        1(3)                              7388.602  7273.377        NaN        NaN

 WARNING: Anharmonic transition moments for symmetric and linear tops
          are not yet fully implemented.

     ==================================================
               Anharmonic Transition Moments
     ==================================================

 Electric dipole : 1 quantum
 ------------------------------------------------------------------------

 --------------------------------------------------------------------------
  FUNDAMENTAL:      1(1)           - Anh. Freq.:   2443.663 cm^-1
 --------------------------------------------------------------------------
      Term                  X                Y                Z
     + HARMONIC        0.000000D+00     0.000000D+00    -0.320378D-01
     + ELECTRIC        0.000000D+00     0.000000D+00     0.950719D-04
        + MIXED        0.292448D-16    -0.139745D-16    -0.285057D-03
 + CUBIC    (1)        0.000000D+00     0.000000D+00    -0.191917D-03
 + QUARTIC  (2)        0.000000D+00     0.000000D+00     0.136798D-03
 + CORIOLIS (3)        0.000000D+00     0.000000D+00     0.000000D+00
    (1)+(2)+(3)        0.000000D+00     0.000000D+00    -0.551193D-04
        = TOTAL        0.292448D-16    -0.139745D-16    -0.322829D-01
 -----------------------------------------------------------------------

 Electric dipole : 2 quanta
 ------------------------------------------------------------------------

 --------------------------------------------------------------------------
  OVERTONE   :      1(2)                     - Anh. Freq.:   4868.122 cm^-1
 --------------------------------------------------------------------------
      Term                  X                Y                Z
     + ELECTRIC        0.125319D-15    -0.598835D-16    -0.122153D-02
     + MECHANIC        0.000000D+00     0.000000D+00     0.149528D-02
        = TOTAL        0.125319D-15    -0.598835D-16     0.273752D-03
 -----------------------------------------------------------------------

 Electric dipole : 3 quanta
 ------------------------------------------------------------------------

 --------------------------------------------------------------------------
  OVERTONE   :      1(3)                     - Anh. Freq.:   7273.377 cm^-1
 --------------------------------------------------------------------------
      Term                  X                Y                Z
     + ELECTRIC        0.000000D+00     0.000000D+00     0.776259D-04
        + MIXED       -0.143269D-16     0.684608D-17     0.139649D-03
 + CUBIC    (1)        0.000000D+00     0.000000D+00    -0.641045D-04
 + QUARTIC  (2)        0.000000D+00     0.000000D+00    -0.558476D-04
 + CORIOLIS (3)   - No Coriolis contributions -
        (1)+(2)        0.000000D+00     0.000000D+00    -0.119952D-03
        = TOTAL       -0.143269D-16     0.684608D-17     0.973228D-04
 -----------------------------------------------------------------------

 Polarizability tensor [Alpha(0,0)]  : 1 quantum
 ------------------------------------------------------------------------

 --------------------------------------------------------------------------
  FUNDAMENTAL:      1(1)           - Anh. Freq.:   2443.663 cm^-1
 --------------------------------------------------------------------------
      Term                  X                Y                Z
     + HARMONIC  X     0.706839D-01
                 Y     0.000000D+00     0.706839D-01
                 Z     0.000000D+00     0.000000D+00     0.359542D+00
     + ELECTRIC  X    -0.107254D-03
                 Y     0.000000D+00    -0.107254D-03
                 Z     0.000000D+00     0.000000D+00    -0.203522D-03
        + MIXED  X    -0.356560D-03
                 Y    -0.447611D-16    -0.356560D-03
                 Z     0.489099D-15     0.706739D-15     0.181971D-02
 + CUBIC    (1)  X     0.423421D-03
                 Y     0.000000D+00     0.423421D-03
                 Z     0.000000D+00     0.000000D+00     0.215378D-02
 + QUARTIC  (2)  X    -0.301813D-03
                 Y     0.000000D+00    -0.301813D-03
                 Z     0.000000D+00     0.000000D+00    -0.153521D-02
 + CORIOLIS (3)  X     0.000000D+00
                 Y     0.000000D+00     0.000000D+00
                 Z     0.000000D+00     0.000000D+00     0.000000D+00
    (1)+(2)+(3)  X     0.121608D-03
                 Y     0.000000D+00     0.121608D-03
                 Z     0.000000D+00     0.000000D+00     0.618572D-03
        = TOTAL  X     0.703417D-01
                 Y    -0.447611D-16     0.703417D-01
                 Z     0.489099D-15     0.706739D-15     0.361777D+00
 -----------------------------------------------------------------------

 Polarizability tensor [Alpha(0,0)]  : 2 quanta
 ------------------------------------------------------------------------

 --------------------------------------------------------------------------
  OVERTONE   :      1(2)                     - Anh. Freq.:   4868.122 cm^-1
 --------------------------------------------------------------------------
      Term                  X                Y                Z
     + ELECTRIC  X    -0.152793D-02
                 Y    -0.191810D-15    -0.152793D-02
                 Z     0.209588D-14     0.302851D-14     0.779780D-02
     + MECHANIC  X    -0.329898D-02
                 Y     0.000000D+00    -0.329898D-02
                 Z     0.000000D+00     0.000000D+00    -0.167807D-01
        = TOTAL  X    -0.482691D-02
                 Y    -0.191810D-15    -0.482691D-02
                 Z     0.209588D-14     0.302851D-14    -0.898286D-02
 -----------------------------------------------------------------------

 Polarizability tensor [Alpha(0,0)]  : 3 quanta
 ------------------------------------------------------------------------

 --------------------------------------------------------------------------
  OVERTONE   :      1(3)                     - Anh. Freq.:   7273.377 cm^-1
 --------------------------------------------------------------------------
      Term                  X                Y                Z
     + ELECTRIC  X    -0.875729D-04
                 Y     0.000000D+00    -0.875729D-04
                 Z     0.000000D+00     0.000000D+00    -0.166175D-03
        + MIXED  X     0.174678D-03
                 Y     0.219283D-16     0.174678D-03
                 Z    -0.239609D-15    -0.346230D-15    -0.891471D-03
 + CUBIC    (1)  X     0.141432D-03
                 Y     0.000000D+00     0.141432D-03
                 Z     0.000000D+00     0.000000D+00     0.719408D-03
 + QUARTIC  (2)  X     0.123215D-03
                 Y     0.000000D+00     0.123215D-03
                 Z     0.000000D+00     0.000000D+00     0.626745D-03
 + CORIOLIS (3)   - No Coriolis contributions -
        (1)+(2)  X     0.264646D-03
                 Y     0.000000D+00     0.264646D-03
                 Z     0.000000D+00     0.000000D+00     0.134615D-02
        = TOTAL  X     0.351751D-03
                 Y     0.219283D-16     0.351751D-03
                 Z    -0.239609D-15    -0.346230D-15     0.288507D-03
 -----------------------------------------------------------------------

     ==================================================
              Anharmonic Infrared Spectroscopy
     ==================================================

 Units: Transition energies (E) in cm^-1
        Integrated intensity (I) in km.mol^-1

 Fundamental Bands
 -----------------
   Mode(n)                              E(harm)   E(anharm)        I(harm)       I(anharm)
      1(1)                              2462.867   2443.663     40.93769709     41.24236474

 Overtones
 ---------
   Mode(n)                              E(harm)   E(anharm)                      I(anharm)
      1(2)                              4925.735   4868.122                      0.00590791
      1(3)                              7388.602   7273.377                      0.00111564

 Units: Transition energies (E) in cm^-1
        Dipole strengths (DS) in 10^-40 esu^2.cm^2

 Fundamental Bands
 -----------------
   Mode(n)                              E(harm)   E(anharm)       DS(harm)      DS(anharm)
      1(1)                              2462.867   2443.663     66.31164535     67.33015863

 Overtones
 ---------
   Mode(n)                              E(harm)   E(anharm)                     DS(anharm)
      1(2)                              4925.735   4868.122                      0.00484150
      1(3)                              7388.602   7273.377                      0.00061192

     ==================================================
           Anharmonic Raman Spectroscopy (Static)
     ==================================================

 NOTE: The Raman activity is calculated here with respect to the
       dimensionless normal coordinates, while mass-weighted normal
       coordinates are used in the harmonic analysis.
       The conversion factor between the former and latter expression of
       the Raman activity calculated at harmonic level is:
       0.059320322*Wi
       where Wi is the harmonic wavenumber of mode i (in cm^-1)

 Units: Transition energies (E) in cm^-1
        Raman activity (RA) in Ang^6

 Fundamental Bands
 -----------------
   Mode(n)                              E(harm)   E(anharm)       RA(harm)      RA(anharm)
      1(1)                              2462.867   2443.663      0.04037385      0.04077450

 Overtones
 ---------
   Mode(n)                              E(harm)   E(anharm)                     RA(anharm)
      1(2)                              4925.735   4868.122                      0.00004079
      1(3)                              7388.602   7273.377                      0.00000011
 Write normal modes, IRwNMS=   797 IRotNM=-1 NVibU=     3.

 Leave Link  717 at Sun Dec 28 17:27:43 2025, MaxMem=   402653184 cpu:               1.3 elap:               0.1
 (Enter /cluster/software/Gaussian/g16_B.01/l103.exe)

 GradGradGradGradGradGradGradGradGradGradGradGradGradGradGradGradGradGrad
 Berny optimization.
 Red2BG is reusing G-inverse.
 Internal  Forces:  Max     0.000000003 RMS     0.000000003
 Search for a local minimum.
 Step number   1 out of a maximum of    2
 All quantities printed in internal units (Hartrees-Bohrs-Radians)
 Second derivative matrix not updated -- analytic derivatives used.
 The second derivative matrix:
                          R1
           R1           1.57383
 ITU=  0
     Eigenvalues ---    1.57383
 Angle between quadratic step and forces=  90.00 degrees.
 Linear search not attempted -- first point.
 Iteration  1 RMS(Cart)=  0.00000000 RMS(Int)=  0.00000000
 ITry= 1 IFail=0 DXMaxC= 8.87D-10 DCOld= 1.00D+10 DXMaxT= 3.00D-01 DXLimC= 3.00D+00 Rises=F
 ClnCor:  largest displacement from symmetrization is 0.00D+00 for atom     0.
 Variable       Old X    -DE/DX   Delta X   Delta X   Delta X     New X
                                 (Linear)    (Quad)   (Total)
    R1        2.16464  -0.00000   0.00000  -0.00000  -0.00000   2.16464
         Item               Value     Threshold  Converged?
 Maximum Force            0.000000     0.000450     YES
 RMS     Force            0.000000     0.000300     YES
 Maximum Displacement     0.000000     0.001800     YES
 RMS     Displacement     0.000000     0.001200     YES
 Predicted change in Energy=-2.478465D-18
 Optimization completed.
    -- Stationary point found.
                           ----------------------------
                           !   Optimized Parameters   !
                           ! (Angstroms and Degrees)  !
 --------------------------                            --------------------------
 ! Name  Definition              Value          Derivative Info.                !
 --------------------------------------------------------------------------------
 ! R1    R(1,2)                  1.1455         -DE/DX =    0.0                 !
 --------------------------------------------------------------------------------
 GradGradGradGradGradGradGradGradGradGradGradGradGradGradGradGradGradGrad

 Leave Link  103 at Sun Dec 28 17:27:44 2025, MaxMem=   402653184 cpu:               1.8 elap:               0.1
 (Enter /cluster/software/Gaussian/g16_B.01/l9999.exe)

 ----------------------------------------------------------------------

 Electric dipole moment (input orientation):
 (Debye = 10**-18 statcoulomb cm , SI units = C m)
                  (au)            (Debye)         (10**-30 SI)
   Tot        0.489322D-01      0.124373D+00      0.414865D+00
   x          0.000000D+00      0.000000D+00      0.000000D+00
   y          0.000000D+00      0.000000D+00      0.000000D+00
   z         -0.489322D-01     -0.124373D+00     -0.414865D+00

 Dipole polarizability, Alpha (input orientation).
 (esu units = cm**3 , SI units = C**2 m**2 J**-1)
 Alpha(0;0):
               (au)            (10**-24 esu)      (10**-40 SI)
   iso        0.449873D+01      0.666642D+00      0.741740D+00
   aniso      0.308669D+01      0.457400D+00      0.508927D+00
   xx         0.346983D+01      0.514176D+00      0.572097D+00
   yx         0.000000D+00      0.000000D+00      0.000000D+00
   yy         0.346983D+01      0.514176D+00      0.572097D+00
   zx         0.000000D+00      0.000000D+00      0.000000D+00
   zy         0.000000D+00      0.000000D+00      0.000000D+00
   zz         0.655652D+01      0.971576D+00      0.108102D+01

 First dipole hyperpolarizability, Beta (input orientation).
 ||, _|_  parallel and perpendicular components, (z) with respect to z axis,
 vector components x,y,z.  Values do not include the 1/n! factor of 1/2.
 (esu units = statvolt**-1 cm**4 , SI units = C**3 m**3 J**-2)
 Beta(0;0,0):
               (au)            (10**-30 esu)      (10**-50 SI)
   || (z)    -0.393657D+01     -0.340089D-01     -0.126221D-01
   _|_(z)    -0.131219D+01     -0.113363D-01     -0.420736D-02
   x          0.000000D+00      0.000000D+00      0.000000D+00
   y          0.000000D+00      0.000000D+00      0.000000D+00
   z         -0.196829D+02     -0.170045D+00     -0.631103D-01
   ||         0.393657D+01      0.340089D-01      0.126221D-01
   xxx        0.000000D+00      0.000000D+00      0.000000D+00
   xxy        0.000000D+00      0.000000D+00      0.000000D+00
   yxy        0.000000D+00      0.000000D+00      0.000000D+00
   yyy        0.000000D+00      0.000000D+00      0.000000D+00
   xxz       -0.560102D+01     -0.483885D-01     -0.179589D-01
   yxz        0.000000D+00      0.000000D+00      0.000000D+00
   yyz       -0.560102D+01     -0.483885D-01     -0.179589D-01
   zxz        0.000000D+00      0.000000D+00      0.000000D+00
   zyz        0.000000D+00      0.000000D+00      0.000000D+00
   zzz        0.464109D+01      0.400954D-01      0.148810D-01

 ----------------------------------------------------------------------

 Dipole orientation:
     8          0.00000000          0.00000000          0.01632788
     6          0.00000000          0.00000000         -2.14831689

 Electric dipole moment (dipole orientation):
 (Debye = 10**-18 statcoulomb cm , SI units = C m)
                  (au)            (Debye)         (10**-30 SI)
   Tot        0.489322D-01      0.124373D+00      0.414865D+00
   x          0.000000D+00      0.000000D+00      0.000000D+00
   y          0.000000D+00      0.000000D+00      0.000000D+00
   z          0.489322D-01      0.124373D+00      0.414865D+00

 Dipole polarizability, Alpha (dipole orientation).
 (esu units = cm**3 , SI units = C**2 m**2 J**-1)
 Alpha(0;0):
               (au)            (10**-24 esu)      (10**-40 SI)
   iso        0.449873D+01      0.666642D+00      0.741740D+00
   aniso      0.308669D+01      0.457400D+00      0.508927D+00
   xx         0.346983D+01      0.514176D+00      0.572097D+00
   yx         0.000000D+00      0.000000D+00      0.000000D+00
   yy         0.346983D+01      0.514176D+00      0.572097D+00
   zx         0.000000D+00      0.000000D+00      0.000000D+00
   zy         0.000000D+00      0.000000D+00      0.000000D+00
   zz         0.655652D+01      0.971576D+00      0.108102D+01

 First dipole hyperpolarizability, Beta (dipole orientation).
 ||, _|_  parallel and perpendicular components, (z) with respect to z axis,
 vector components x,y,z.  Values do not include the 1/n! factor of 1/2.
 (esu units = statvolt**-1 cm**4 , SI units = C**3 m**3 J**-2)
 Beta(0;0,0):
               (au)            (10**-30 esu)      (10**-50 SI)
   || (z)     0.393657D+01      0.340089D-01      0.126221D-01
   _|_(z)     0.131219D+01      0.113363D-01      0.420736D-02
   x          0.000000D+00      0.000000D+00      0.000000D+00
   y          0.000000D+00      0.000000D+00      0.000000D+00
   z          0.196829D+02      0.170045D+00      0.631103D-01
   ||         0.393657D+01      0.340089D-01      0.126221D-01
   xxx        0.000000D+00      0.000000D+00      0.000000D+00
   xxy        0.000000D+00      0.000000D+00      0.000000D+00
   yxy        0.000000D+00      0.000000D+00      0.000000D+00
   yyy        0.000000D+00      0.000000D+00      0.000000D+00
   xxz        0.560102D+01      0.483885D-01      0.179589D-01
   yxz        0.000000D+00      0.000000D+00      0.000000D+00
   yyz        0.560102D+01      0.483885D-01      0.179589D-01
   zxz        0.000000D+00      0.000000D+00      0.000000D+00
   zyz        0.000000D+00      0.000000D+00      0.000000D+00
   zzz       -0.464109D+01     -0.400954D-01     -0.148810D-01

 ----------------------------------------------------------------------

 Test job not archived.
 1\1\GINC-C5-14\Freq\RHF\STO-3G\C1O1\VLE014\28-Dec-2025\0\\#P HF/STO-3G
  Freq=(Anharmonic,raman,hpmodes,ReadAnharm) Int=UltraFine SCF=VeryTigh
 t iop(7/33=1) IOp(10/96=2) Guess=Read Geom=AllCheck\\Title\\0,1\O,0.,0
 .,-0.0086403422\C,0.,0.,1.1368403422\\Version=ES64L-G16RevB.01\State=1
 -SG\HF=-111.2254495\RMSD=1.963e-09\RMSF=1.613e-09\ZeroPoint=0.0056108\
 Thermal=0.0079714\Dipole=0.,0.,-0.0489322\DipoleDeriv=0.0226052,0.,0.,
 0.,0.0226052,0.,0.,0.,-0.5365721,-0.0226052,0.,0.,0.,-0.0226052,0.,0.,
 0.,0.5365721\Polar=3.4698284,0.,3.4698284,0.,0.,6.5565197\PolarDeriv=0
 .,0.,0.,-1.4259574,0.,0.,0.,0.,0.,0.,-1.4259574,0.,-1.1838208,0.,-1.18
 38208,0.,0.,-6.0216429,0.,0.,0.,1.4259574,0.,0.,0.,0.,0.,0.,1.4259574,
 0.,1.1838208,0.,1.1838208,0.,0.,6.0216429\HyperPolar=0.,0.,0.,0.,-5.60
 10221,0.,-5.6010221,0.,0.,4.6410928\Quadrupole=0.7474474,0.7474474,-1.
 4948947,0.,0.,0.\PG=C*V [C*(C1O1)]\NImag=0\\0.,0.,0.,0.,0.,1.57382879,
 0.,0.,0.,0.,0.,0.,0.,0.,0.,0.,0.,-1.57382879,0.,0.,1.57382879\\0.,0.,0
 .,0.,0.,0.\\0.27770719,0.,0.27770719,0.,0.,-1.99331763,-0.27770719,0.,
 0.,0.27770719,0.,-0.27770719,0.,0.,0.27770719,0.,0.,1.99331763,0.,0.,-
 1.99331763,-0.44966401,0.,-0.44966401,0.,0.,2.19943653,0.44966399,0.,0
 .,-0.44966399,0.,0.44966399,0.,0.,-0.44966399,0.,0.,-2.19943653,0.,0.,
 2.19943653\\@


 DO NOT LET SELFISH MEN OR GREEDY INTERESTS SKIN YOUR COUNTRY OF ITS
 BEAUTY, ITS RICHES, OR ITS ROMANCE. -- THEODORE ROOSEVELT
 Job cpu time:       0 days  0 hours  2 minutes 31.8 seconds.
 Elapsed time:       0 days  0 hours  0 minutes  7.2 seconds.
 File lengths (MBytes):  RWF=     50 Int=      0 D2E=      0 Chk=     38 Scr=      1
 Normal termination of Gaussian 16 at Sun Dec 28 17:27:44 2025.
